@relation datacenter_ai_environmental_waste_risk_v2-weka.filters.unsupervised.attribute.ReplaceMissingValues-weka.filters.unsupervised.attribute.Remove-R27-29-weka.filters.unsupervised.attribute.NumericToNominal-R16-weka.filters.unsupervised.attribute.RemoveUseless-M99.0-weka.filters.unsupervised.attribute.Normalize-S1.0-T0.0

@attribute active_power_w numeric
@attribute energy_consumption_kwh numeric
@attribute water_usage_effectiveness numeric
@attribute carbon_intensity_gco2_kwh numeric
@attribute inlet_temperature_c numeric
@attribute exhaust_temperature_c numeric
@attribute delta_t_c numeric
@attribute fan_speed_rpm numeric
@attribute cooling_method {air,liquid,immersion,hybrid}
@attribute cpu_utilization_percent numeric
@attribute memory_utilization_percent numeric
@attribute gpu_power_w numeric
@attribute gpu_utilization_percent numeric
@attribute gpu_temperature_c numeric
@attribute gpu_core_frequency_mhz numeric
@attribute num_gpus {1,2,4,8,16}
@attribute ai_workload_type {training,inference,fine_tuning,idle}
@attribute batch_size numeric
@attribute num_epochs numeric
@attribute model_parameter_size_million numeric
@attribute training_samples numeric
@attribute job_duration_hours numeric
@attribute job_status {success,failed,aborted,running}
@attribute rack_power_density_kw numeric
@attribute gpu_sharing_mode {full_gpu,temporal_sharing,mig,none}
@attribute power_cap_w numeric
@attribute environmental_waste_risk_level {baixo,moderado,alto}

@data
0.357733,0.35614,0.138889,0.234657,0.390625,0.558091,0.629121,0.428543,liquid,0.783133,0.8375,0.518578,0.836957,0.68254,0.763413,4,fine_tuning,0.030777,0.114094,0.152275,0.171103,0.170423,success,0.047826,temporal_sharing,0.466138,moderado
0.422496,0.42193,0.200855,0.38452,0.4375,0.524896,0.568681,0.60121,hybrid,0.60241,0.6875,0.781906,0.771739,0.825397,0.612799,4,fine_tuning,0.187103,0.14094,0.05614,0.103723,0.13783,success,0.046087,full_gpu,0.579101,baixo
0.42478,0.418421,0.113248,0.283995,0.320313,0.390041,0.431319,0.455739,hybrid,0.650602,0.6,0.746365,0.793478,0.809524,0.804137,4,fine_tuning,0.187103,0.053691,0.186957,0.123203,0.166045,success,0.044348,full_gpu,0.529101,moderado
0.362566,0.357018,0.239316,0.330927,0.382813,0.404564,0.428571,0.358513,hybrid,0.722892,0.725,0.537964,0.608696,0.698413,0.699418,4,fine_tuning,0.374695,0.114094,0.179843,0.056088,0.07232,success,0.037391,temporal_sharing,0.492416,moderado
0.316872,0.312281,0.147436,0.358604,0.289062,0.377593,0.425824,0.409216,hybrid,0.481928,0.5875,0.344103,0.728261,0.679474,0.569489,4,inference,0.249634,0,0.063298,0.036322,0.022161,success,0.047826,mig,0.361111,baixo
0.971353,0.921053,0.314103,0.945848,0.960938,0.989627,1,0.995082,air,0.650602,0.7875,1,0.554348,0.857143,0.711054,16,training,0.749878,1,0.959179,0.971922,0.918545,running,1,full_gpu,1,alto
0.928032,0.886842,0.209858,0.387485,0.382813,0.470954,0.516484,0.430068,hybrid,0.554217,0.5875,0.297254,0.456522,0.52381,0.452489,4,inference,0.030777,0,0.063032,0.023991,0.015837,success,0.055652,full_gpu,0.252734,moderado
0.446134,0.445614,0.126068,0.282792,0.242188,0.502075,0.607143,0.477329,hybrid,0.73494,0.9125,0.568659,0.98913,0.761905,0.785391,8,training,0.499756,0.127517,0.605366,0.229109,0.429166,success,0.082609,full_gpu,0.589771,baixo
0.472935,0.473684,0.044872,0.204573,0.390625,0.462656,0.502747,0.499951,hybrid,0.650602,0.85,0.681745,0.706522,0.793651,0.714932,4,fine_tuning,0.062042,0.134228,0.217049,0.169068,0.039998,success,0.046957,full_gpu,0.618871,moderado
0.574956,0.57807,0.155983,0.518652,0.21875,0.556017,0.686813,0.581735,liquid,0.855422,0.725,0.835218,0.717391,0.857143,0.862961,8,fine_tuning,0.374695,0.228188,0.207854,0.171898,0.089292,success,0.136522,full_gpu,0.648942,moderado
0.377856,0.374561,0.175214,0.38452,0.453125,0.585062,0.642857,0.518049,hybrid,0.313253,0.4125,0.499192,0.282609,0.634921,0.420168,4,idle,0.001466,0,0.001373,0.000479,0.032647,success,0.278261,mig,0.559083,alto
0.617575,0.610526,0.175214,0.458484,0.390625,0.570539,0.645604,0.574604,liquid,0.903614,0.825,0.612278,0.684783,0.746032,0.70459,8,training,1,0.812081,0.826547,0.198059,0.598941,success,0.090435,full_gpu,0.914815,moderado
0.217926,0.216667,0.215812,0.38452,0.414063,0.429461,0.450549,0.303924,air,0.614458,0.55,0.33441,0.630435,0.571429,0.503555,4,inference,0.249634,0,0.067017,0.048492,0.012648,success,0.027826,full_gpu,0.288272,moderado
0.891916,0.894737,0.527778,0.821901,0.882813,0.948133,0.972527,0.926232,air,0.614458,0.7125,0.93538,0.467391,0.761905,0.659341,16,training,0.499756,0.697987,0.664015,0.736607,0.783417,aborted,0.168696,full_gpu,1,alto
0.147012,0.14386,0.053419,0.144404,0.007813,0.03527,0.071429,0.243385,liquid,0.53012,0.4625,0.429725,0.793478,0.52381,0.372334,1,inference,0.030777,0,0.01312,0.022254,0.013134,success,0.006957,full_gpu,0.171252,baixo
0.298418,0.297368,0.098291,0.192539,0.367187,0.29668,0.244505,0.186486,air,0.843373,0.6125,0.636511,0.913043,0.777778,0.633484,4,fine_tuning,0.187103,0.040268,0.064759,0.010377,0.060753,running,0.042609,mig,0.343827,baixo
0.474956,0.469298,0.134615,0.290012,0.328125,0.556017,0.648352,0.512737,liquid,0.771084,0.8625,0.633279,0.793478,0.777778,0.638655,8,fine_tuning,0.374695,0.04698,0.107779,0.105742,0.120966,success,0.123478,temporal_sharing,0.640212,baixo
0.710369,0.707895,0.126068,0.341757,0.4375,0.70332,0.804945,0.548736,liquid,0.987952,0.8125,0.655897,0.880435,0.793651,0.892696,16,training,0.499756,0.530201,0.470875,0.690431,0.384898,success,0.141739,full_gpu,0.820811,baixo
0.495606,0.492105,0.209858,0.280385,0.53125,0.657676,0.711538,0.518049,hybrid,0.313253,0.45,0.596123,0.271739,0.730159,0.387847,8,idle,0.00342,0,0.001151,0.000377,0.030485,success,0.46087,temporal_sharing,0.673721,alto
0.312127,0.308772,0.098291,0.146811,0.382813,0.342324,0.346154,0.418806,liquid,0.759036,0.6375,0.52504,0.793478,0.714286,0.645766,4,fine_tuning,0.249634,0.087248,0.056967,0.093334,0.052267,success,0.330435,full_gpu,0.363228,moderado
0.545167,0.551754,0.066239,0.249097,0.21875,0.394191,0.472527,0.401347,liquid,0.674699,0.9125,0.896607,0.826087,0.888889,0.692954,8,training,1,0.208054,0.691879,0.795642,0.089347,success,0.093913,full_gpu,0.685273,baixo
0.217223,0.217544,0.100427,0.216606,0.125,0.352697,0.450549,0.343317,air,0.759036,0.5375,0.489499,0.652174,0.650794,0.681319,2,fine_tuning,0.187103,0.087248,0.056052,0.005093,0.059727,success,0.010435,full_gpu,0.308907,baixo
1,1,0.121795,0.255114,0.390625,0.421162,0.447802,0.377299,air,0.036145,0.6,0.471729,0.173913,0.539683,0.453782,4,inference,0.124573,0,0.08638,0.048272,0.011243,success,0.082609,temporal_sharing,0.265697,moderado
0.848067,0.735965,0.217949,1,0.453125,0.574689,0.629121,0.439363,hybrid,0.373494,0.4875,0.483037,0.391304,0.634921,0.426632,4,inference,0.062042,0,0.035316,0.025545,0.022918,success,0.252174,mig,0.52381,alto
0.041916,0.042982,0.049145,0.178099,0.234375,0.049793,0.010989,0.048884,air,0.204819,0.0125,0.071082,0.086957,0.126984,0.312217,1,idle,0.000489,0,0.000679,0.000284,0.002162,success,0,mig,0.060494,baixo
0.420035,0.424561,0.33547,0.527076,0.53125,0.616183,0.656593,0.522966,liquid,0.277108,0.4,0.53958,0.25,0.698413,0.374919,8,idle,0.001466,0,0.001077,0.000336,0.027242,failed,0.16087,temporal_sharing,0.57672,alto
0.622408,0.618421,0.32265,0.548736,0.617188,0.761411,0.818681,0.66047,hybrid,0.674699,0.7,0.633279,0.48913,0.746032,0.690368,8,training,0.499756,0.362416,0.362889,0.794239,0.369061,success,0.353913,full_gpu,0.892504,moderado
0.130404,0.133333,0.217949,0.537906,0.554688,0.688797,0.744505,0,air,0.192771,0.325,0.156704,0.130435,0.920635,0.323853,2,idle,0.000489,0,0.000635,0.000972,0.004973,success,0.034783,none,0.246296,moderado
0.17355,0.171053,0.064103,0.077016,0.140625,0.288382,0.35989,0.202026,air,0.578313,0.425,0.345719,0.858696,0.571429,0.594053,2,inference,0.124573,0,0.018462,0.016941,0.00373,success,0.026087,temporal_sharing,0.231481,baixo
0.382162,0.386842,0.271368,0.237064,0.351563,0.443983,0.491758,0.439264,hybrid,0.53012,0.775,0.421648,0.663043,0.666667,0.652877,8,inference,0.030777,0,0.081229,0.013799,0.016918,success,0.110435,temporal_sharing,0.458201,moderado
0.449033,0.448246,0.16453,0.23586,0.296875,0.441909,0.508242,0.367365,liquid,0.73494,0.575,0.689822,0.673913,0.761905,0.764706,4,fine_tuning,0.187103,0.080537,0.072684,0.096329,0.15237,success,0.266957,full_gpu,0.557407,moderado
0.866784,0.479825,0.324786,0.503008,0.570313,0.657676,0.697802,0.557392,liquid,0.325301,0.425,0.030695,0.01087,0.714286,0.413704,8,idle,0.001466,0,0.000708,0.000234,0.026161,aborted,0.193043,mig,0.656085,alto
0.328559,0.324561,0.149573,0.267148,0.226563,0.356846,0.42033,0.433805,liquid,0.578313,0.65,0.568659,0.608696,0.68254,0.563025,8,inference,0.124573,0,0.080978,0.022096,0.015999,success,0.056522,temporal_sharing,0.411023,baixo
0.206678,0.210526,0.117521,0.382671,0.460938,0.483402,0.505495,0.412806,air,0.518072,0.5875,0.337641,0.391304,0.539683,0.411118,4,inference,0.249634,0,0.026978,0.037741,0.024323,success,0.046957,full_gpu,0.257584,moderado
0.865554,0.870175,0.485043,0.743682,0.882813,0.927386,0.945055,0.891807,air,0.566265,0.6875,0.919225,0.467391,0.777778,0.639948,16,training,0.499756,0.731544,0.649257,0.695683,0.70234,aborted,0.921739,mig,1,alto
0.018981,0.020175,0.004274,0.072202,0.21875,0.174274,0.181319,0.089751,air,0.144578,0.1875,0.027464,0.086957,0.063492,0.202973,2,idle,0.001466,0,0.000192,0.000446,0.003838,success,0,mig,0.03157,baixo
0.940246,0.94386,0.292735,0.478941,0.921875,0.937759,0.945055,0.872135,hybrid,0.578313,0.7,0.951535,0.521739,0.968254,0.672269,16,training,0.374695,0.865772,0.737806,0.777531,0.837468,success,0.965217,temporal_sharing,1,alto
0.634446,0.637719,0.367521,0.551143,0.648438,0.73029,0.766484,0.645913,hybrid,0.457831,0.575,0.725363,0.391304,0.809524,0.51713,8,fine_tuning,0.124573,0.154362,0.110583,0.09614,0.291552,aborted,0.626087,temporal_sharing,0.823633,alto
0.769947,0.771053,0.435897,0.438026,0.59375,0.547718,0.543956,0.673207,liquid,0.879518,0.85,0.825525,0.706522,0.888889,0.840983,16,training,1,0.328859,0.241695,0.828156,0.510675,success,0.165217,full_gpu,1,moderado
0.388401,0.390351,0.303419,0.551143,0.492188,0.564315,0.601648,0.444281,liquid,0.349398,0.4375,0.483037,0.347826,0.634921,0.413704,4,inference,0.124573,0,0.036792,0.028615,0.027242,running,0.252174,temporal_sharing,0.541446,alto
0.380668,0.385965,0.267094,0.548736,0.421875,0.578838,0.645604,0.539146,hybrid,0.542169,0.8,0.476575,0.554348,0.666667,0.597931,8,inference,0.249634,0,0.042076,0.013942,0.012162,success,0.11913,temporal_sharing,0.482628,moderado
0.636204,0.639474,0.442308,0.623345,0.765625,0.813278,0.835165,0.808203,air,0.289157,0.5,0.781906,0.217391,0.857143,0.510666,8,inference,0.015144,0,0.005062,0.001809,0.013729,failed,0.704348,full_gpu,0.876543,alto
0.385413,0.383333,0.196581,0.150421,0.328125,0.443983,0.5,0.447182,hybrid,0.578313,0.75,0.508885,0.706522,0.68254,0.664512,4,fine_tuning,0.187103,0.087248,0.117254,0.183324,0.08913,success,0.06,full_gpu,0.501323,moderado
0.245343,0.247368,0.117521,0.290012,0.40625,0.437759,0.464286,0.277614,air,0.650602,0.9,0.612278,0.880435,0.761905,0.75501,4,fine_tuning,0.093307,0.067114,0.076684,0.027206,0.027404,success,0.04087,full_gpu,0.347795,baixo
0.347012,0.349123,0.277778,0.276775,0.429688,0.481328,0.549451,0.463214,hybrid,0.831325,0.8,0.489499,0.706522,0.698413,0.67033,4,fine_tuning,0.124573,0.174497,0.06104,0.058734,0.076158,success,0.054783,full_gpu,0.464462,moderado
0.096221,0.094737,0.053419,0.026474,0.21875,0.217842,0.239011,0.102243,air,0.373494,0.35,0.135703,0.576087,0.365079,0.546218,2,inference,0.062042,0,0.011305,0.015444,0.011729,success,0.006087,full_gpu,0.120459,baixo
0.834798,0.82807,0.527778,0.755716,0.882813,0.917012,0.931319,0.886889,air,0.554217,0.7,0.870759,0.413043,0.920635,0.614092,16,fine_tuning,0.249634,0.261745,0.29506,0.306901,0.480731,success,0.886957,full_gpu,1,alto
0.821353,0.818421,0.211538,0.518652,0.53125,0.636929,0.684066,0.761385,hybrid,0.903614,0.9125,0.773829,0.684783,0.84127,0.785391,16,training,0.374695,0.328859,0.855724,0.908168,0.5457,success,0.225217,full_gpu,1,moderado
0.276977,0.279825,0.094017,0.132371,0.367187,0.410788,0.442308,0.391413,hybrid,0.73494,0.7125,0.489499,0.663043,0.68254,0.592114,4,fine_tuning,0.187103,0.120805,0.117106,0.174441,0.108967,success,0.029565,full_gpu,0.346914,moderado
0.241828,0.245614,0.123932,0.551143,0.367187,0.481328,0.535714,0.464296,liquid,0.481928,0.575,0.310178,0.771739,0.587302,0.612153,4,inference,0.124573,0,0.083841,0.041738,0.018702,success,0.03913,mig,0.315785,baixo
0.178822,0.180702,0.08547,0.197353,0.171875,0.244813,0.291209,0.200108,air,0.638554,0.5375,0.439418,0.75,0.587302,0.391726,2,fine_tuning,0.030777,0.107383,0.022934,0.016927,0.04243,success,0.006087,full_gpu,0.223633,baixo
0.619947,0.62193,0.290598,0.626955,0.648438,0.558091,0.538462,0.62334,liquid,0.638554,0.9625,0.44588,0.804348,0.698413,0.787977,8,fine_tuning,0.187103,0.09396,0.041618,0.045103,0.114534,success,0.152174,mig,0.980952,moderado
0.874165,0.635088,0.284188,0.33574,0.382813,0.439834,0.475275,0.610849,liquid,0.698795,0.8,0.059774,0.173913,0.809524,0.665805,8,training,0.749878,0.530201,0.607536,0.754225,0.612291,running,0.14087,full_gpu,0.840917,moderado
0.619684,0.616667,0.16453,0.425993,0.5625,0.634855,0.67033,0.625947,liquid,0.86747,0.7875,0.612278,0.706522,0.761905,0.727214,8,training,0.374695,0.536913,0.272451,0.261163,0.497973,success,0.142609,full_gpu,0.743739,moderado
0.516081,0.520175,0.100427,0.359807,0.484375,0.53112,0.56044,0.350693,hybrid,0.60241,0.6875,0.290792,0.652174,0.492063,0.517776,4,inference,0.124573,0,0.020455,0.013525,0.01281,success,0.052174,temporal_sharing,0.657231,baixo
0.487258,0.485965,0.273504,0.38452,0.5,0.558091,0.590659,0.467149,hybrid,0.939759,0.6375,0.518578,0.815217,0.730159,0.7298,8,inference,0.249634,0,0.074352,0.035391,0.024593,success,0.116522,temporal_sharing,0.57037,moderado
0.900703,0.904386,0.602564,0.815884,0.921875,0.948133,0.958791,0.926232,air,0.325301,0.4625,0.903069,0.23913,0.936508,0.555915,16,idle,0.007328,0,0.001077,0.000408,0.038052,running,0.965217,full_gpu,1,alto
0.039104,0.038596,0.209858,0,0.078125,0,0,0.119799,air,0.072289,0.225,0.085622,0.065217,0.063492,0.047188,4,idle,0.001466,0,0.001535,0.000849,0.003513,success,0,temporal_sharing,0.055291,baixo
0.739895,0.733333,0.260684,0.394705,0.726563,0.813278,0.848901,0.621324,hybrid,0.518072,0.625,0.806139,0.423913,0.857143,0.549451,16,training,0.249634,0.630872,0.486917,0.531985,0.626669,failed,0.730435,mig,0.929453,alto
0.133831,0.130702,0.17094,0.702768,0.59375,0.695021,0.739011,0.386545,hybrid,0.072289,0.325,0.294023,0.152174,0.333333,0.493859,4,idle,0.00342,0,0.004206,0.000224,0.035458,success,0.052174,temporal_sharing,0.217989,moderado
0.931459,0.920175,0.239316,0.358604,0.921875,0.917012,0.96978,0.813121,liquid,0.566265,0.675,0.903069,0.5,0.936508,0.633484,16,training,0.749878,0.932886,0.826355,0.900305,0.891519,success,0.241739,full_gpu,1,alto
0.03638,0.035088,0.023504,0.049338,0.101563,0.151452,0.192308,0.486944,hybrid,0.048193,0.1875,0.048465,0.01087,0.079365,0.028442,2,idle,0,0,0.001358,0.000178,0.000919,success,0,mig,0.06358,baixo
0.425308,0.427193,0.324786,0.515042,0.53125,0.616183,0.656593,0.513131,liquid,0.144578,0.4,0.547658,0.25,0.679474,0.374919,8,idle,0.001466,0,0.001004,0.000305,0.026161,success,0.408696,full_gpu,0.585538,alto
0.793937,0.781579,0.211538,0.55355,0.515625,0.655602,0.714286,0.609472,immersion,0.915663,0.9875,0.825525,0.836957,0.904762,0.939884,16,training,0.499756,0.785235,0.298484,0.771636,0.542998,success,0.225217,full_gpu,0.997178,baixo
0.473989,0.468421,0.147436,0.54994,0.5,0.580913,0.620879,0.450477,hybrid,0.879518,0.775,0.489499,0.826087,0.698413,0.725275,8,fine_tuning,0.187103,0.167785,0.070972,0.157554,0.115507,success,0.112174,full_gpu,0.579806,baixo
0.392707,0.392105,0.094017,0.38452,0.351563,0.489627,0.552198,0.401692,liquid,0.903614,0.9875,0.933764,0.869565,0.761905,0.811894,4,training,0.499756,0.422819,0.918653,0.52682,0.28939,success,0.056522,full_gpu,0.437302,baixo
0.446397,0.45,0.185897,0.286402,0.53125,0.616183,0.656593,0.498377,hybrid,0.289157,0.4,0.555735,0.25,0.679474,0.374919,8,idle,0.00342,0,0.001004,0.000326,0.028863,success,0.408696,mig,0.611993,alto
0.332074,0.336842,0.087607,0.303249,0.382813,0.533195,0.598901,0.349464,hybrid,0.831325,0.725,0.513732,0.913043,0.793651,0.52424,8,training,0.124573,0.127517,0.317404,0.65201,0.42122,success,0.06087,full_gpu,0.428307,baixo
0.584359,0.583333,0.254274,0.258724,0.476563,0.558091,0.598901,0.506098,hybrid,0.722892,0.6625,0.788368,0.641304,0.84127,0.808016,8,fine_tuning,0.187103,0.134228,0.036645,0.076061,0.072807,success,0.133913,full_gpu,0.793034,moderado
0.465729,0.467544,0.175214,0.286402,0.53125,0.564315,0.587912,0.020606,air,0.313253,0.45,0.57189,0.271739,0.952381,0.413704,8,idle,0.00342,0,0.001004,0.000356,0.026701,success,0.123478,full_gpu,0.638448,alto
0.048682,0.05,0.025641,0.066185,0.039063,0.120332,0.173077,0.05331,air,0.144578,0.175,0.027464,0.032609,0.015873,0.139625,1,idle,0.001466,0,0.00003,0.000202,0.003784,success,0,full_gpu,0.069929,baixo
0.535677,0.52807,0.081197,0.277978,0.414063,0.506224,0.552198,0.486944,liquid,0.843373,0.8625,0.600969,0.967391,0.746032,0.88106,16,training,0.749878,0.442953,0.313774,0.157916,0.130209,success,0.129565,full_gpu,0.640917,baixo
0.622144,0.555263,0.378205,0.490975,0.648438,0.73029,0.766484,0.63116,hybrid,0.39759,0.55,0.717286,0.358696,0.793651,0.510666,8,inference,0.015144,0,0.011703,0.007641,0.031025,success,0.268696,full_gpu,0.814815,alto
0.554218,0.545614,0.134615,0.394705,0.375,0.56639,0.645604,0.549474,liquid,0.951807,0.9875,0.914378,0.967391,0.809524,1,8,training,0.499756,0.718121,0.861804,0.501517,0.108805,success,0.104348,full_gpu,0.713845,baixo
0.353251,0.35614,0.378205,0.677497,0.53125,0.585062,0.615385,0.874693,hybrid,0.240964,0.575,0.426494,0.358696,0.603175,0.465417,4,inference,0.124573,0,0.036792,0.028615,0.031566,success,0.252174,temporal_sharing,0.479718,alto
0.40246,0.405263,0.213675,0.322503,0.53125,0.605809,0.642857,0.936117,liquid,0.120482,0.55,0.523425,0.01087,0.68254,0.452489,4,fine_tuning,0.124573,0.09396,0.073688,0.06647,0.20507,success,0.269565,temporal_sharing,0.559083,alto
0.447276,0.449123,0.185897,0.298436,0.53125,0.616183,0.656593,0.498377,liquid,0.301205,0.4125,0.555735,0.26087,0.698413,0.387847,8,idle,0.001466,0,0.001151,0.000387,0.027782,failed,0.203478,full_gpu,0.611993,alto
0.536204,0.558772,0.108974,0.322503,0.25,0.537344,0.651099,0.551884,hybrid,0.939759,0.8,0.639742,0.934783,0.730159,0.859082,8,training,0.249634,0.463087,0.59961,0.460225,0.332252,running,0.072174,full_gpu,0.746914,baixo
0.799649,0.792105,0.474359,0.707581,0.765625,0.844398,0.876374,0.744271,liquid,0.53012,0.6375,0.822294,0.445652,0.873016,0.588235,16,fine_tuning,0.187103,0.208054,0.184374,0.15855,0.405059,failed,0.782609,full_gpu,1,alto
0.593146,0.595614,0.209858,0.599278,0.648438,0.719917,0.752747,0.640995,air,0.361446,0.5125,0.693053,0.336957,0.777778,0.484809,8,inference,0.062042,0,0.017607,0.012245,0.031566,failed,0.6,full_gpu,0.78836,alto
0.759227,0.764035,0.307692,0.631769,0.578125,0.692946,0.741758,0.649749,immersion,0.807229,0.6625,0.812601,0.771739,0.825397,0.731739,16,training,1,0.530201,0.426157,0.353271,0.589157,success,0.182609,full_gpu,1,moderado
0.128471,0.126316,0.002137,0.037304,0.242188,0.170124,0.167582,0.118914,air,0.481928,0.525,0.3021,0.717391,0.52381,0.519069,2,inference,0.015144,0,0.012928,0.00375,0.004865,success,0.005217,temporal_sharing,0.146561,baixo
0.653076,0.660526,0.130342,0.320096,0.390625,0.657676,0.760989,0.642372,liquid,1,0.825,0.882068,0.891304,0.873016,0.922431,8,training,0.499756,0.369128,0.259715,0.553172,0.531215,success,0.134783,full_gpu,0.87866,baixo
0.405624,0.407895,0.155983,0.503008,0.40625,0.60166,0.681319,0.457018,hybrid,0.783133,0.6125,0.657512,0.728261,0.777778,0.648352,4,fine_tuning,0.124573,0.040268,0.210614,0.127059,0.081023,success,0.052174,full_gpu,0.564374,moderado
0.186555,0.183333,0.138889,0.399519,0.429688,0.614108,0.68956,0.486944,air,0.409639,0.675,0.386107,0.608696,0.539683,0.5766,1,inference,0.249634,0,0.021148,0.022153,0.003189,running,0.023478,temporal_sharing,0.267372,moderado
0.47355,0.47807,0.102564,0.471721,0.429688,0.582988,0.648352,0.564621,liquid,0.771084,0.7625,0.478191,0.913043,0.714286,0.870718,8,fine_tuning,0.374695,0.114094,0.088269,0.144373,0.044808,success,0.090435,full_gpu,0.551499,baixo
0.366344,0.362281,0.036325,0.084236,0.421875,0.616183,0.695055,0.350251,immersion,0.795181,0.725,0.576737,0.978261,0.714286,0.888817,4,training,0.749878,0.516779,0.351879,0.324492,0.388249,success,0.067826,full_gpu,0.495503,baixo
0.442091,0.434211,0.138889,0.058965,0.453125,0.622407,0.692308,0.448461,immersion,0.939759,0.9125,0.500808,0.869565,0.777778,0.69554,8,training,0.124573,0.436242,0.263257,0.258705,0.427815,success,0.06087,full_gpu,0.543386,baixo
0.669596,0.664912,0.16453,0.280385,0.6875,0.761411,0.793956,0.586899,liquid,0.325301,0.5,0.733441,0.304348,0.825397,0.478345,8,inference,0.030777,0,0.032365,0.019407,0.03589,failed,0.669565,full_gpu,0.858907,alto
0.523199,0.517544,0.194444,0.287605,0.4375,0.549793,0.601648,0.954854,hybrid,0.963855,0.8125,0.602585,0.891304,0.888889,0.828054,8,training,0.499756,0.912752,0.434865,0.276327,0.399816,success,0.084348,full_gpu,0.685626,baixo
0.768893,0.541228,0.42094,0.617329,0.609375,0.69917,0.739011,0.616406,liquid,0.578313,0.6875,0.135703,0.021739,0.679474,0.555915,8,fine_tuning,0.124573,0.161074,0.103204,0.090001,0.280742,aborted,0.513043,full_gpu,0.717813,alto
0.152636,0.153509,0.209858,0.308063,0.257813,0.36722,0.450549,0.166913,air,0.662651,0.625,0.400646,0.902174,0.746032,0.530705,2,fine_tuning,0.030777,0.053691,0.033176,0.048455,0.049511,success,0.002609,full_gpu,0.196649,baixo
0.311951,0.307895,0.16453,0.404332,0.429688,0.375519,0.373626,0.399774,liquid,0.698795,0.725,0.476575,0.771739,0.68254,0.632191,4,inference,0.249634,0,0.051004,0.020122,0.008594,success,0.046957,temporal_sharing,0.391887,baixo
0.549209,0.54386,0.175214,0.268351,0.53125,0.657676,0.711538,0.638536,air,0.325301,0.5,0.652666,0.271739,0.679474,0.442793,8,idle,0.001466,0,0.000487,0.000275,0.029944,success,0.168696,temporal_sharing,0.726631,alto
0.847012,0.427193,0.209858,0.515042,0.53125,0.616183,0.656593,0.513131,liquid,0.289157,0.4,0.033926,0.01087,0.698413,0.374919,8,idle,0.001466,0,0.001004,0.000305,0.026161,aborted,0.408696,mig,0.585538,alto
0.960896,0.746491,0.15812,0.972323,0.4375,0.504149,0.541209,0.988886,hybrid,0.698795,0.675,0.534733,0.673913,0.888889,0.688429,4,fine_tuning,0.062042,0.060403,0.178589,0.145049,0.09259,success,0.050435,temporal_sharing,0.550088,moderado
0.469244,0.47193,0.356838,0.659446,0.570313,0.605809,0.629121,0.655749,hybrid,0.156627,0.2375,0.53958,0.076087,0.698413,0.32967,4,idle,0.001466,0,0.000413,0.00009,0.020215,running,0.330435,full_gpu,0.585538,alto
0.075044,0.073684,0.044872,0.157641,0.148438,0.278008,0.343407,0.156634,air,0.289157,0.5625,0.168013,0.76087,0.412698,0.351002,1,inference,0.124573,0,0.001845,0.022616,0.011999,success,0,full_gpu,0.109436,baixo
0.105712,0.10614,0.117521,0.303249,0.367187,0.363071,0.379121,0.327924,air,0.698795,0.625,0.357027,0.771739,0.539683,0.509373,2,inference,0.030777,0,0.029295,0.023996,0.022269,success,0.250435,full_gpu,0.139771,moderado
0.141301,0.14386,0.047009,0.38452,0.179688,0.221992,0.258242,0.075489,hybrid,0.13253,0.5375,0.177706,0.5,0.380952,0.378151,2,inference,0.007328,0,0.007763,0.011989,0.010756,success,0.016522,temporal_sharing,0.185097,baixo
0.558787,0.557895,0.08547,0.164862,0.40625,0.470954,0.508242,0.531622,liquid,0.903614,0.9125,0.788368,0.869565,0.873016,0.798966,8,training,0.499756,0.167785,0.300462,0.850253,0.360143,success,0.150435,full_gpu,0.688007,moderado
0.465729,0.461404,0.192308,0.310469,0.53125,0.605809,0.67033,0.493459,hybrid,0.313253,0.45,0.563813,0.271739,0.714286,0.413704,8,idle,0.00342,0,0.001077,0.000367,0.027242,running,0.443478,temporal_sharing,0.62963,alto
0.286731,0.287719,0.162393,0.522262,0.3125,0.473029,0.543956,0.460411,hybrid,0.638554,0.675,0.34895,0.597826,0.603175,0.630899,4,inference,0.124573,0,0.033191,0.045044,0.022431,success,0.05913,temporal_sharing,0.377778,baixo
0.290685,0.29386,0.038462,0.251504,0.179688,0.309129,0.373626,0.486944,hybrid,0.807229,0.7,0.476575,0.913043,0.746032,0.734971,4,fine_tuning,0.249634,0.060403,0.0183,0.013017,0.062429,success,0.053043,mig,0.370723,baixo
0.462654,0.457018,0.222222,0.416366,0.53125,0.620332,0.662088,0.556506,hybrid,0.662651,0.825,0.631664,0.728261,0.761905,0.609567,8,fine_tuning,0.249634,0.134228,0.089184,0.162434,0.102967,success,0.073913,full_gpu,0.629189,baixo
0.417399,0.420175,0.50641,0.38452,0.53125,0.626556,0.67033,0.586899,hybrid,0.216867,0.3375,0.523425,0.184783,0.68254,0.361991,4,idle,0.000489,0,0.000413,0.000162,0.020215,running,0.304348,temporal_sharing,0.559083,alto
0.164499,0.164035,0.100427,0.160048,0.210937,0.348548,0.414835,0.28022,hybrid,0.506024,0.775,0.533118,0.880435,0.793651,0.578539,2,fine_tuning,0.030777,0.033557,0.039773,0.036927,0.017242,running,0.02087,full_gpu,0.216226,baixo
0.443849,0.441228,0.168803,0.345367,0.429688,0.614108,0.68956,0.551687,hybrid,0.855422,0.8875,0.701131,0.815217,0.84127,0.871364,8,fine_tuning,0.249634,0.04698,0.11811,0.123563,0.067834,success,0.108696,full_gpu,0.603527,baixo
0.294288,0.29386,0.134615,0.423586,0.359375,0.446058,0.491758,0.503885,hybrid,0.795181,0.6125,0.675283,0.728261,0.761905,0.810601,4,fine_tuning,0.124573,0.201342,0.185628,0.176522,0.07659,success,0.047826,full_gpu,0.376631,moderado
0.217399,0.22193,0.074786,0.239471,0.226563,0.261411,0.293956,0.270139,hybrid,0.638554,0.75,0.549273,0.717391,0.68254,0.745314,4,fine_tuning,0.374695,0.060403,0.207397,0.12418,0.043241,success,0.042609,full_gpu,0.293474,moderado
0.675747,0.668421,0.188034,0.385078,0.25,0.551867,0.67033,0.516622,hybrid,0.795181,0.6875,0.830372,0.782609,0.825397,0.69554,8,training,0.249634,0.255034,0.870615,0.784008,0.62775,success,0.090435,temporal_sharing,0.760141,moderado
0.43304,0.434211,0.128205,0.249097,0.492188,0.533195,0.478022,0.332842,immersion,0.686747,0.75,0.634895,0.782609,0.777778,0.795734,4,training,0.499756,0.261745,0.267374,0.639126,0.159775,success,0.041739,full_gpu,0.563933,baixo
0.405097,0.407895,0.209858,0.394705,0.453125,0.616183,0.684066,0.483623,liquid,0.228916,0.3625,0.531502,0.206522,0.698413,0.387847,4,idle,0.00342,0,0.00093,0.000223,0.023999,failed,0.304348,mig,0.550265,alto
0.240773,0.235965,0.277778,0.163658,0.21875,0.564315,0.697802,0.541408,air,0.60241,0.7875,0.483037,0.608696,0.603175,0.541694,2,fine_tuning,0.030777,0.147651,0.018138,0.115249,0.128696,success,0.016522,temporal_sharing,0.350794,moderado
0.428822,0.430702,0.209858,0.490975,0.53125,0.778008,0.656593,0.809531,air,0.289157,0.4125,0.547658,0.26087,0.698413,0.381383,8,idle,0.00342,0,0.00093,0.000295,0.026161,success,0.815652,temporal_sharing,0.594356,alto
0.435325,0.430702,0.155983,0.383875,0.53125,0.609959,0.648352,0.559703,air,0.614458,0.7125,0.689822,0.684783,0.761905,0.592114,4,fine_tuning,0.249634,0.087248,0.187946,0.070417,0.0567,success,0.05913,full_gpu,0.562257,moderado
0.768893,0.77193,0.399573,0.659446,0.726563,0.813278,0.848901,0.704928,liquid,0.445783,0.6375,0.814216,0.369565,0.857143,0.568843,16,inference,0.030777,0,0.029413,0.015314,0.039674,failed,0.747826,temporal_sharing,0.964727,alto
0.131986,0.130702,0.017094,0.074609,0.15625,0.205394,0.244505,0.227747,air,0.506024,0.4375,0.231018,0.836957,0.396825,0.599224,4,inference,0.030777,0,0.003232,0.011738,0.009837,success,0.026087,temporal_sharing,0.157672,baixo
0.250264,0.255263,0.138889,0.548736,0.476563,0.479253,0.494505,0.456723,liquid,0.373494,0.6,0.47496,0.5,0.555556,0.502262,2,inference,0.062042,0,0.049897,0.023383,0.028269,success,0.031304,temporal_sharing,0.289418,moderado
0.298243,0.3,0.162393,0.38452,0.359375,0.371369,0.392857,0.317006,air,0.481928,0.65,0.426494,0.597826,0.650794,0.676147,4,inference,0.249634,0,0.036895,0.043251,0.010324,success,0.050435,full_gpu,0.379189,baixo
0.783831,0.660526,0.346154,0.527076,0.6875,0.751037,0.78022,0.626242,air,0.457831,0.5875,0.053312,0.163043,0.825397,0.510666,8,inference,0.062042,0,0.019082,0.012245,0.029404,success,0.652174,mig,0.858907,alto
0.16529,0.163158,0.209858,0.133574,0.265625,0.365145,0.417582,0.320989,hybrid,0.855422,0.575,0.298869,0.847826,0.539683,0.775048,4,fine_tuning,0.124573,0.040268,0.026225,0.023424,0.070266,success,0.02,temporal_sharing,0.242857,baixo
0.244815,0.245614,0.160256,0.54272,0.445312,0.462656,0.483516,0.486944,liquid,0.710843,0.65,0.327948,0.75,0.587302,0.670976,4,inference,0.062042,0,0.061128,0.013997,0.027296,success,0.075652,temporal_sharing,0.314727,moderado
0.608084,0.610526,0.356838,0.575211,0.609375,0.709544,0.752747,0.636078,liquid,0.445783,0.575,0.709208,0.391304,0.793651,0.504202,8,fine_tuning,0.124573,0.161074,0.112059,0.098186,0.296957,running,0.608696,temporal_sharing,0.78836,alto
0.704745,0.708772,0.59188,0.821901,0.84375,0.865145,0.876374,0.832792,hybrid,0.493976,0.6125,0.798061,0.380435,0.888889,0.562379,8,fine_tuning,0.249634,0.228188,0.176995,0.173896,0.388844,failed,0.669565,full_gpu,0.89418,alto
0.692355,0.685965,0.326923,0.398315,0.671875,0.626556,0.620879,0.606275,liquid,0.746988,0.8125,0.772213,0.728261,0.873016,0.703943,16,training,0.124573,0.684564,0.613188,0.441823,0.484839,success,0.24087,full_gpu,1,moderado
0.431019,0.428947,0.094017,0.271961,0.453125,0.628631,0.700549,0.487902,liquid,0.783133,0.8625,0.74475,0.771739,0.873016,0.839043,4,fine_tuning,0.249634,0.114094,0.20418,0.04316,0.082752,success,0.049565,full_gpu,0.548589,baixo
0.613445,0.620175,0.036325,0.095066,0.382813,0.462656,0.505495,0.513229,immersion,0.915663,0.925,0.781906,0.880435,0.904762,0.882999,8,training,0.499756,0.402685,0.23988,0.707363,0.288525,success,0.086957,full_gpu,0.797531,baixo
0.196485,0.191228,0.106838,0.320096,0.328125,0.342324,0.365385,0.358021,air,0.445783,0.5375,0.361874,0.554348,0.555556,0.420814,2,inference,0.124573,0,0.044821,0.050374,0.020485,success,0.328696,temporal_sharing,0.255908,moderado
0.453427,0.45614,0.196581,0.310469,0.53125,0.626556,0.67033,0.483623,liquid,0.325301,0.4625,0.563813,0.282609,0.714286,0.40724,8,idle,0.001466,0,0.001225,0.000418,0.028323,running,0.434783,full_gpu,0.62963,alto
0.918278,0.92193,0.549145,0.876053,0.921875,0.958506,0.972527,0.955739,air,0.590361,0.6875,0.951535,0.48913,0.984127,0.678733,16,training,0.374695,0.832215,0.767322,0.849149,0.864494,success,0.236522,full_gpu,1,alto
0.432337,0.435965,0.378205,0.659446,0.492188,0.636929,0.67033,0.596735,air,0.192771,0.3125,0.547658,0.184783,0.68254,0.361991,4,idle,0.000489,0,0.000339,0.000142,0.020756,failed,0.321739,temporal_sharing,0.585538,alto
0.288664,0.283333,0.089744,0.239471,0.210937,0.458506,0.56044,0.389102,liquid,0.698795,0.775,0.479806,0.836957,0.666667,0.698125,4,fine_tuning,0.124573,0.040268,0.012294,0.017985,0.016215,success,0.029565,full_gpu,0.394356,baixo
0.363445,0.366667,0.196581,0.286402,0.453125,0.582988,0.64011,0.403118,hybrid,0.783133,0.7125,0.542811,0.608696,0.679474,0.65223,4,fine_tuning,0.249634,0.080537,0.216458,0.157146,0.159343,success,0.414783,full_gpu,0.462875,moderado
0.037873,0.037719,0.087607,0.425993,0.101563,0.1639,0.208791,0.270335,air,0.240964,0.125,0.12601,0.076087,0.095238,0.33872,2,idle,0.001466,0,0.00152,0.000412,0.000919,success,0,none,0.064462,baixo
0.506766,0.507895,0.07265,0.38452,0.414063,0.543568,0.56044,0.39343,liquid,0.951807,0.8875,0.568659,0.826087,0.746032,0.809955,8,training,0.499756,0.530201,0.246063,0.31843,0.228474,success,0.095652,full_gpu,0.641887,baixo
0.027592,0.028947,0.051282,0.21059,0.148438,0.022822,0.005495,0.088276,air,0.192771,0.125,0.087237,0.065217,0.111111,0.062056,1,idle,0,0,0.001446,0.000757,0.001297,success,0,none,0.052557,baixo
0.538664,0.542982,0.207265,0.322503,0.570313,0.647303,0.684066,0.486944,hybrid,0.361446,0.5375,0.652666,0.282609,0.746032,0.455721,8,inference,0.030777,0,0.010227,0.006618,0.419545,failed,0.232174,full_gpu,0.726631,alto
0.190685,0.188596,0.17094,0.381468,0.351563,0.371369,0.395604,0.966165,hybrid,0.120482,0.625,0.397415,0.315217,0.52381,0.514544,4,inference,0.062042,0,0.045042,0.0503,0.005729,success,0.036522,full_gpu,0.273986,moderado
0.310808,0.311404,0.17735,0.308063,0.320313,0.526971,0.612637,0.495967,hybrid,0.518072,0.6375,0.394184,0.532609,0.619048,0.550097,4,inference,0.062042,0,0.086985,0.021294,0.007621,success,0.04,temporal_sharing,0.376543,baixo
0.196309,0.202632,0.113248,0.129964,0.28125,0.497925,0.587912,0.355857,hybrid,0.566265,0.8875,0.444265,0.826087,0.68254,0.705236,4,fine_tuning,0.030777,0.087248,0.128131,0.089711,0.07432,success,0.035652,full_gpu,0.266138,moderado
0.817223,0.819298,0.200855,0.298436,0.765625,0.854772,0.89011,0.665585,air,0.542169,0.65,0.846527,0.456522,0.888889,0.585003,16,fine_tuning,0.249634,0.275168,0.221269,0.225052,0.743419,failed,0.843478,mig,1,alto
0.249297,0.250877,0.155983,0.23586,0.453125,0.454357,0.46978,0.342382,air,0.590361,0.8625,0.42811,0.663043,0.68254,0.629606,8,inference,0.249634,0,0.022565,0.013378,0.006054,success,0.102609,full_gpu,0.335891,baixo
0.238928,0.240351,0.117521,0.374248,0.367187,0.414938,0.519231,0.479837,hybrid,0.518072,0.6875,0.38126,0.771739,0.571429,0.571429,4,inference,0.062042,0,0.057557,0.028726,0.011189,success,0.053913,temporal_sharing,0.285979,baixo
0.743409,0.746491,0.224359,0.394705,0.765625,0.834025,0.862637,0.486944,air,0.385542,0.55,0.773829,0.347826,0.84127,0.513898,16,inference,0.030777,0,0.013179,0.007129,0.02562,failed,0.791304,mig,0.955908,alto
0.52478,0.527193,0.147436,0.298436,0.40625,0.425311,0.447802,0.508754,liquid,0.831325,0.725,0.764136,0.728261,0.84127,0.778281,8,fine_tuning,0.124573,0.127517,0.052598,0.126813,0.115723,success,0.097391,mig,0.627072,moderado
0.189455,0.182456,0.232906,0.540313,0.46875,0.526971,0.56044,0.434051,hybrid,0.39759,0.5375,0.457189,0.51087,0.571429,0.489981,2,inference,0.249634,0,0.079827,0.020977,0.018972,success,0.023478,temporal_sharing,0.288801,moderado
0.607469,0.600877,0.284188,0.393502,0.609375,0.748963,0.804945,0.569637,liquid,0.722892,0.85,0.743134,0.717391,0.84127,0.707175,8,training,0.499756,0.85906,0.289718,0.185732,0.565861,aborted,0.153913,full_gpu,0.795679,moderado
0.567135,0.572807,0.104701,0.226233,0.507813,0.526971,0.546703,0.541949,immersion,0.807229,0.9625,0.73021,0.945652,0.825397,0.842922,16,training,0.499756,0.557047,0.801502,0.972002,0.382412,success,0.197391,full_gpu,0.701058,baixo
0.200791,0.192982,0.138889,0.534296,0.546875,0.477178,0.467033,0.402774,air,0.506024,0.675,0.221325,0.619565,0.492063,0.530705,4,inference,0.030777,0,0.017164,0.041131,0.013405,success,0.076522,temporal_sharing,0.294004,moderado
0.392882,0.396491,0.132479,0.38452,0.53125,0.539419,0.554945,0.566342,air,0.614458,0.925,0.491115,0.75,0.714286,0.776988,4,fine_tuning,0.187103,0.120805,0.070411,0.122617,0.130804,success,0.062609,full_gpu,0.470811,baixo
0.04877,0.048246,0.136752,0.327316,0.179688,0.112033,0.112637,0.229812,air,0.156627,0.075,0.075929,0.25,0.047619,0.353588,1,idle,0,0,0.000015,0.000265,0.001459,success,0,mig,0.065256,baixo
0.737961,0.733333,0.40812,0.659446,0.679687,0.711618,0.730769,0.705813,liquid,0.674699,0.725,0.773829,0.532609,0.857143,0.742728,16,training,1,0.52349,0.183798,0.456823,0.281066,success,0.191304,full_gpu,1,moderado
0.098243,0.102632,0.100427,0.286402,0.429688,0.541494,0.593407,0.313711,air,0.325301,0.3875,0.352181,0.347826,0.460317,0.433743,2,idle,0.007328,0,0.002125,0.000559,0.003621,success,0.010435,temporal_sharing,0.17134,moderado
0.132425,0.131579,0.07265,0.115523,0.265625,0.228216,0.236264,0.126783,air,0.385542,0.375,0.163166,0.021739,0.396825,0.630252,2,inference,0.007328,0,0.004368,0.007107,0.001567,success,0.011304,full_gpu,0.152116,baixo
0.23471,0.234211,0.094017,0.487365,0.289062,0.379668,0.428571,0.453821,liquid,0.53012,0.6375,0.329564,0.619565,0.603175,0.509373,4,inference,0.249634,0,0.083295,0.040423,0.012162,success,0.063478,full_gpu,0.323192,baixo
0.300791,0.303509,0.113248,0.371841,0.375,0.466805,0.513736,0.338399,liquid,0.542169,0.5875,0.282714,0.586957,0.492063,0.543633,4,inference,0.062042,0,0.028646,0.021077,0.011675,success,0.053913,temporal_sharing,0.400265,baixo
0.36652,0.359649,0.141026,0.421179,0.445312,0.485477,0.513736,0.393774,liquid,0.60241,0.7625,0.471729,0.793478,0.634921,0.667098,4,fine_tuning,0.187103,0.067114,0.121844,0.102995,0.150154,success,0.42,full_gpu,0.427072,moderado
0.278735,0.251754,0.205128,0.507822,0.398438,0.483402,0.527473,0.522573,air,0.457831,0.6,0.502423,0.5,0.634921,0.402069,4,inference,0.124573,0,0.085583,0.025938,0.006,success,0.072174,temporal_sharing,0.421517,moderado
0.415993,0.411404,0.119658,0.219013,0.289062,0.551867,0.656593,0.878873,hybrid,0.879518,0.75,0.499192,0.880435,0.888889,0.83969,8,training,0.249634,0.516779,0.429183,0.347068,0.221393,success,0.068696,full_gpu,0.561728,baixo
0.743497,0.755263,0.333333,0.951865,0.632813,0.647303,0.662088,0.767286,hybrid,0.819277,0.825,0.864297,0.717391,0.888889,0.8468,16,training,0.249634,0.52349,0.912691,0.753266,0.465921,success,0.231304,full_gpu,1,moderado
0.110457,0.108772,0.141026,0.480144,0.304688,0.462656,0.532967,0.251156,air,0.542169,0.5,0.245557,0.576087,0.412698,0.507434,2,inference,0.062042,0,0.026152,0.034466,0.004216,success,0.031304,mig,0.141623,moderado
0.761863,0.759649,0.339744,0.351384,0.554688,0.589212,0.612637,0.660372,hybrid,0.686747,0.8875,0.759289,0.597826,0.825397,0.789916,16,training,0.374695,0.758389,0.887129,0.918906,0.290957,running,0.188696,full_gpu,1,moderado
0.211951,0.214035,0.143162,0.4284,0.359375,0.454357,0.502747,0.433166,air,0.493976,0.525,0.319871,0.543478,0.507937,0.626374,4,inference,0.062042,0,0.020573,0.046139,0.01481,success,0.046957,temporal_sharing,0.271605,baixo
0.362654,0.357895,0.143162,0.33213,0.40625,0.553942,0.618132,0.515442,liquid,0.686747,0.7875,0.520194,0.934783,0.68254,0.61086,4,fine_tuning,0.187103,0.09396,0.116723,0.118368,0.1521,success,0.042609,full_gpu,0.449735,baixo
0.222496,0.218421,0.098291,0.456077,0.265625,0.487552,0.57967,0.421855,hybrid,0.60241,0.6375,0.557351,0.815217,0.698413,0.775695,4,fine_tuning,0.187103,0.214765,0.211426,0.115726,0.106319,success,0.389565,mig,0.251764,moderado
0.219508,0.218421,0.237179,0.618532,0.546875,0.587137,0.612637,0.369627,hybrid,0.373494,0.7,0.327948,0.434783,0.492063,0.402715,2,inference,0.062042,0,0.030328,0.034616,0.012053,success,0.029565,mig,0.301499,moderado
0.94464,0.949123,0.570513,0.90012,0.960938,0.979253,0.986264,0.960657,air,0.60241,0.7125,0.96769,0.48913,0.984127,0.672269,16,training,0.374695,0.798658,0.70829,0.777531,0.756392,aborted,0.982609,full_gpu,1,alto
0.922671,0.916667,0.517094,0.815884,0.921875,0.958506,0.972527,1,air,0.590361,0.7,0.951535,0.478261,0.968254,0.659341,16,training,0.374695,0.798658,0.70829,0.757069,0.783417,success,0.965217,full_gpu,1,alto
0.777065,0.769298,0.303419,0.32491,0.6875,0.686722,0.695055,0.712354,hybrid,0.554217,0.675,0.964459,0.543478,0.793651,0.809308,16,training,0.124573,0.885906,0.676146,0.89664,0.494514,success,0.256522,full_gpu,1,moderado
0.202988,0.20614,0.055556,0.300842,0.203125,0.423237,0.516484,0.28504,liquid,0.674699,0.6875,0.415186,0.684783,0.68254,0.638009,2,fine_tuning,0.124573,0.100671,0.020839,0.081346,0.032485,success,0.016522,temporal_sharing,0.261287,baixo
0.158787,0.15614,0.089744,0.108303,0.226563,0.294606,0.337912,0.290745,hybrid,0.409639,0.375,0.258481,0.641304,0.460317,0.443439,4,inference,0.062042,0,0.00704,0.018174,0.01027,success,0.026087,mig,0.23448,baixo
0.306766,0.307895,0.119658,0.034898,0.328125,0.485477,0.554945,0.381184,air,0.807229,0.8625,0.688207,0.76087,0.809524,0.61797,4,fine_tuning,0.030777,0.080537,0.085642,0.047319,0.026972,success,0.029565,temporal_sharing,0.397443,baixo
0.599297,0.603509,0.264957,0.551143,0.6875,0.73029,0.752747,0.739353,air,0.373494,0.45,0.676898,0.293478,0.809524,0.471881,8,inference,0.030777,0,0.013179,0.008153,0.027782,success,0.652174,temporal_sharing,0.770723,alto
0.949033,0.952632,0.517094,0.803851,0.960938,0.96888,0.972527,0.93115,air,0.626506,0.75,0.96769,0.51087,0.84127,0.672269,16,training,0.499756,0.765101,0.693531,0.757069,0.729366,aborted,0.982609,full_gpu,1,alto
0.307469,0.313158,0.269231,0.146811,0.539063,0.680498,0.739011,0.458493,air,0.506024,0.5375,0.46042,0.565217,0.679474,0.493213,4,inference,0.124573,0,0.039611,0.015815,0.027188,success,0.072174,mig,0.376896,moderado
0.448155,0.449123,0.160256,0.459687,0.34375,0.493776,0.56044,0.556949,hybrid,0.771084,0.7125,0.541195,0.826087,0.730159,0.613445,4,fine_tuning,0.249634,0.067114,0.115527,0.139936,0.061402,success,0.045217,full_gpu,0.548942,baixo
0.218541,0.214912,0.155983,0.241877,0.234375,0.379668,0.447802,0.363824,hybrid,0.493976,0.6875,0.533118,0.445652,0.634921,0.462185,4,inference,0.249634,0,0.025989,0.045533,0.022107,success,0.063478,temporal_sharing,0.289153,moderado
0.736907,0.746491,0.143162,0.429603,0.3125,0.591286,0.700549,0.572637,liquid,0.987952,0.9125,0.959612,0.956522,0.888889,0.870071,16,training,0.249634,0.395973,0.534999,0.77992,0.445111,success,0.207826,full_gpu,0.948501,baixo
0.842179,0.836842,0.423077,0.374248,0.390625,0.676349,0.785714,0.75027,hybrid,0.759036,0.7625,0.87399,0.684783,0.679474,0.832579,16,training,0.749878,0.248322,0.746941,0.363159,0.570131,success,0.394783,full_gpu,1,moderado
0.232425,0.226316,0.087607,0.293622,0.476563,0.545643,0.582418,0.360628,liquid,0.819277,0.85,0.552504,0.695652,0.68254,0.749192,4,fine_tuning,0.124573,0.09396,0.216016,0.049504,0.06524,success,0.046957,full_gpu,0.334921,moderado
0.446397,0.449123,0.185897,0.298436,0.53125,0.616183,0.656593,0.903511,liquid,0.313253,0.4125,0.555735,0.26087,0.698413,0.387847,8,idle,0.001466,0,0.001151,0.000387,0.027782,failed,0.426087,full_gpu,0.611993,alto
0.595343,0.591228,0.361111,0.448857,0.609375,0.639004,0.659341,0.624225,hybrid,0.638554,0.55,0.691438,0.532609,0.777778,0.714932,8,training,0.124573,0.583893,0.348603,0.347144,0.101562,failed,0.127826,temporal_sharing,0.800882,moderado
0.622144,0.627193,0.277778,0.298436,0.648438,0.576763,0.563187,0.983869,hybrid,0.361446,0.5125,0.725363,0.315217,0.825397,0.510666,8,inference,0.062042,0,0.030889,0.018384,0.032106,success,0.6,temporal_sharing,0.814815,alto
0.671353,0.674561,0.378205,0.569194,0.6875,0.771784,0.807692,0.665585,immersion,0.638554,0.725,0.757674,0.521739,0.84127,0.633484,8,training,0.249634,0.530201,0.280302,0.368287,0.621264,running,0.634783,full_gpu,0.84127,alto
0.514938,0.519298,0.495726,0.38452,0.53125,0.647303,0.684066,0.60657,hybrid,0.228916,0.325,0.596123,0.195652,0.730159,0.381383,8,idle,0.001466,0,0.000782,0.000254,0.022918,running,0.495652,temporal_sharing,0.68254,alto
0.265202,0.265789,0.059829,0.113117,0.164063,0.446058,0.56044,0.276335,hybrid,0.795181,0.575,0.596123,0.652174,0.698413,0.78927,4,fine_tuning,0.249634,0.107383,0.059298,0.077479,0.061456,success,0.041739,full_gpu,0.345767,baixo
0.837786,0.839474,0.094017,0.33935,0.492188,0.516598,0.510989,0.486673,hybrid,0.891566,0.9125,0.793215,0.836957,0.761905,0.928248,16,training,0.499756,0.724832,0.44124,0.867395,0.339279,success,0.20087,full_gpu,1,baixo
0.290246,0.285088,0.160256,0.303249,0.445312,0.545643,0.593407,0.408036,air,0.650602,0.65,0.458805,0.728261,0.619048,0.605042,4,fine_tuning,0.249634,0.100671,0.211573,0.042095,0.116913,success,0.031304,temporal_sharing,0.414462,moderado
0.785589,0.789474,0.42094,0.677497,0.804688,0.844398,0.862637,0.734435,air,0.506024,0.5875,0.806139,0.423913,0.873016,0.555915,16,fine_tuning,0.187103,0.181208,0.13272,0.132972,0.378034,aborted,0.791304,temporal_sharing,0.982363,alto
0.824253,0.826316,0.299145,0.412756,0.882813,0.896266,0.903846,0.009098,hybrid,0.518072,0.625,0.846527,0.467391,0.904762,0.630252,16,training,0.249634,0.637584,0.265544,0.419443,0.637479,aborted,0.852174,temporal_sharing,1,alto
0.578471,0.580702,0.102564,0.471721,0.335938,0.572614,0.667582,0.53895,liquid,0.73494,0.85,0.932149,0.967391,0.825397,0.973497,8,training,0.749878,0.85906,0.254948,0.404371,0.336847,success,0.104348,full_gpu,0.759436,baixo
0.052636,0.057018,0.155983,0.619735,0.484375,0.66805,0.741758,0.283073,air,0.096386,0.5125,0.088853,0.282609,0.679474,0.294764,2,idle,0.001466,0,0.001874,0.000216,0.011999,success,0.026957,none,0.102028,moderado
0.422056,0.427193,0.051282,0.150421,0.445312,0.576763,0.634615,0.486944,hybrid,0.698795,0.8875,0.61874,0.978261,0.714286,0.742081,8,training,0.374695,0.61745,0.113594,0.616429,0.250635,success,0.061739,full_gpu,0.552116,baixo
0.128647,0.126316,0.055556,0.044525,0.164063,0.207469,0.244505,0.11375,air,0.542169,0.525,0.15832,0,0.365079,0.254686,2,inference,0.030777,0,0.021503,0.007465,0.008054,success,0.004348,full_gpu,0.178042,baixo
0.630931,0.627193,0.188034,0.578821,0.375,0.628631,0.728022,0.489869,liquid,0.843373,0.8,0.945073,0.847826,0.888889,0.777634,8,training,0.374695,0.644295,0.570906,1,0.340306,success,0.113043,full_gpu,0.881746,baixo
0.867399,0.859649,0.376068,0.578821,0.570313,0.672199,0.717033,0.704387,immersion,0.795181,0.85,0.82391,0.673913,0.873016,0.61086,16,training,1,0.422819,0.474594,0.257097,0.478461,success,0.190435,full_gpu,1,moderado
0.116872,0.115789,0.100427,0.22503,0.3125,0.294606,0.307692,0.16229,hybrid,0.506024,0.4375,0.168013,0.728261,0.444444,0.671622,2,inference,0.124573,0,0.008752,0.005354,0.012486,success,0.01913,mig,0.146032,baixo
0.984183,0.970175,0.209858,0.582431,0.460938,0.636929,0.708791,0.578194,hybrid,0.951807,0.9625,0.843296,0.945652,0.777778,0.902392,16,training,0.749878,0.315436,0.872622,0.5948,0.286309,success,0.218261,full_gpu,1,baixo
0.616696,0.62193,0.147436,0.276775,0.265625,0.466805,0.552198,0.55808,hybrid,0.891566,0.8375,0.655897,0.945652,0.68254,0.883646,8,training,0.249634,0.268456,0.466373,0.813027,0.262418,success,0.094783,full_gpu,0.742152,baixo
0.206151,0.2,0.081197,0.141998,0.390625,0.369295,0.379121,0.218157,hybrid,0.445783,0.5,0.410339,0.48913,0.507937,0.427925,2,inference,0.007328,0,0.02745,0.008231,0.015945,success,0.04087,temporal_sharing,0.27284,moderado
0.681019,0.685965,0.198718,0.23586,0.53125,0.639004,0.686813,0.488836,hybrid,0.915663,0.9375,0.867528,0.913043,0.873016,0.819005,16,training,0.499756,0.61745,1,0.317276,0.584131,success,0.149565,full_gpu,0.810582,baixo
0.365554,0.369298,0.217949,0.34657,0.453125,0.595436,0.656593,0.46887,hybrid,0.373494,0.4875,0.466882,0.380435,0.634921,0.426632,4,inference,0.062042,0,0.026461,0.017361,0.024539,success,0.243478,temporal_sharing,0.514991,alto
0.051845,0.049123,0.168803,0.688327,0.429688,0.593361,0.662088,0.371496,air,0.349398,0.3875,0.159935,0.271739,0.269841,0.196509,2,idle,0,0,0.006184,0.00055,0.476082,failed,0.02087,temporal_sharing,0.102028,moderado
0.64833,0.631579,0.228632,0.475331,0.40625,0.520747,0.574176,0.478558,immersion,0.915663,0.9375,0.786753,0.858696,0.873016,0.882999,8,training,0.249634,0.651007,0.668457,0.813782,0.358413,success,0.138261,full_gpu,0.907143,baixo
0.46283,0.457895,0.057692,0.108303,0.414063,0.493776,0.535714,0.420576,immersion,0.939759,0.6875,0.785137,0.782609,0.809524,0.716225,8,training,0.374695,0.536913,0.227527,0.72615,0.185612,success,0.12,full_gpu,0.569489,moderado
0.667838,0.662281,0.356838,0.53911,0.6875,0.751037,0.78022,0.616406,immersion,0.433735,0.5625,0.741519,0.391304,0.825397,0.530058,16,inference,0.062042,0,0.02351,0.014291,0.033187,failed,0.678261,temporal_sharing,0.858907,alto
0.586995,0.579825,0.16453,0.256318,0.648438,0.688797,0.711538,0.567227,liquid,0.337349,0.475,0.684976,0.336957,0.777778,0.484809,8,training,0.499756,0.731544,0.413126,0.470598,0.70234,aborted,0.582609,temporal_sharing,0.761905,alto
0.938137,0.379825,0.34188,0.635379,0.53125,0.626556,0.67033,0.547556,hybrid,0.313253,0.425,0.053312,0.119565,0.634921,0.381383,4,inference,0.062042,0,0.026461,0.012245,0.026161,running,0.269565,temporal_sharing,0.541446,alto
0.48225,0.485965,0.126068,0.54994,0.5,0.547718,0.576923,0.448166,hybrid,0.650602,0.8625,0.720517,0.847826,0.825397,0.663219,4,fine_tuning,0.249634,0.114094,0.112162,0.123727,0.108697,success,0.076522,full_gpu,0.673192,baixo
0.104482,0.103509,0.09188,0.167268,0.039063,0.095436,0.14011,0.248697,air,0.542169,0.725,0.171244,0.652174,0.412698,0.489981,4,inference,0.124573,0,0.023274,0.019225,0.002703,running,0.022609,temporal_sharing,0.127249,baixo
0.814411,0.813158,1,0.155235,0.273438,0.165975,0.151099,0.045343,hybrid,0.024096,0.2625,0.074313,0.054348,0.063492,0.240465,4,idle,0,0,0.001373,0.000211,0.001297,success,0,temporal_sharing,0.054409,baixo
0.194815,0.197368,0.040598,0.34657,0.304688,0.454357,0.521978,0.325661,liquid,0.46988,0.725,0.363489,0.73913,0.539683,0.676147,2,inference,0.007328,0,0.019894,0.044676,0.020485,success,0.014783,temporal_sharing,0.258025,moderado
0.535325,0.538596,0.198718,0.529483,0.460938,0.628631,0.697802,0.544064,hybrid,0.855422,0.7625,0.704362,0.826087,0.793651,0.753717,8,fine_tuning,0.187103,0.154362,0.082277,0.183663,0.120372,success,0.096522,full_gpu,0.655203,baixo
0.775923,0.783333,0.111111,0.322503,0.46875,0.483402,0.502747,0.476788,liquid,0.963855,0.85,0.807754,0.978261,0.84127,0.897867,16,training,0.124573,0.657718,0.4547,0.774723,0.379493,success,0.20087,full_gpu,0.935362,baixo
0.768014,0.770175,0.399573,0.659446,0.765625,0.844398,0.876374,0.729517,liquid,0.506024,0.6125,0.822294,0.423913,0.873016,0.581771,16,fine_tuning,0.187103,0.194631,0.162237,0.143203,0.399654,failed,0.201739,full_gpu,0.982363,alto
0.090422,0.090351,0.032051,0.152828,0.242188,0.153527,0.145604,0.238369,air,0.626506,0.65,0.122779,0.695652,0.412698,0.320621,2,inference,0.062042,0,0.016529,0.025147,0.009189,success,0.018261,mig,0.123721,baixo
0.720562,0.716667,0.442308,0.38452,0.6875,0.792531,0.835165,0.645913,hybrid,0.686747,0.8,0.725363,0.576087,0.825397,0.646412,8,training,0.499756,0.630872,0.531191,0.613834,0.594238,failed,0.66087,temporal_sharing,0.858907,alto
0.984183,0.985088,0.136752,0.38452,0.453125,0.649378,0.788462,0.670749,immersion,0.939759,0.85,0.899838,0.934783,0.777778,0.845507,16,training,0.749878,0.456376,0.953217,0.841104,0.465272,success,0.182609,full_gpu,1,baixo
0.280053,0.307895,0.258547,0.377858,0.375,0.599585,0.68956,0.443641,hybrid,0.53012,0.6125,0.347334,0.402174,0.539683,0.408533,4,inference,0.062042,0,0.036866,0.020025,0.007135,success,0.067826,temporal_sharing,0.328571,moderado
0.54833,0.553509,0.179487,0.286402,0.609375,0.678423,0.711538,0.636078,liquid,0.301205,0.3875,0.636511,0.23913,0.679474,0.426632,8,idle,0.00342,0,0.000856,0.000275,0.031025,failed,0.166087,mig,0.708995,alto
0.852373,0.85614,0.410256,0.527076,0.84375,0.885892,0.903846,0.911478,air,0.445783,0.6,0.886914,0.304348,0.936508,0.581771,16,inference,0.062042,0,0.017607,0.016337,0.040214,failed,0.895652,full_gpu,1,alto
0.021178,0.02193,0.07265,0.091456,0.046875,0.089212,0.129121,0.032114,air,0.13253,0.0875,0.037157,0.043478,0.015873,0.447964,2,idle,0.00342,0,0.001476,0.000866,0.002919,success,0,none,0.033069,baixo
0.597715,0.601754,0.066239,0.161252,0.257813,0.446058,0.527473,0.394659,liquid,0.831325,0.725,0.843296,0.771739,0.84127,0.936652,8,training,1,0.214765,0.527694,0.763107,0.150749,success,0.126957,full_gpu,0.835802,baixo
0.262566,0.265789,0.098291,0.361011,0.296875,0.431535,0.494505,0.31499,hybrid,0.626506,0.5375,0.476575,0.771739,0.619048,0.705882,4,inference,0.062042,0,0.040467,0.024176,0.00173,success,0.035652,temporal_sharing,0.350529,moderado
0.408612,0.405263,0.057692,0.323706,0.25,0.360996,0.417582,0.32812,liquid,0.674699,0.6,0.408724,0.75,0.666667,0.588235,8,inference,0.007328,0,0.06467,0.041382,0.02789,success,0.087826,temporal_sharing,0.466402,moderado
0.434359,0.433333,0.262821,0.357401,0.390625,0.541494,0.607143,0.597423,hybrid,0.518072,0.8625,0.575121,0.543478,0.730159,0.612153,8,fine_tuning,0.124573,0.147651,0.100415,0.112904,0.132479,success,0.106957,full_gpu,0.555556,moderado
0.886731,0.598246,0.410256,0.635379,0.648438,0.73029,0.766484,0.486944,air,0.445783,0.5875,0,0.141304,0.793651,0.497738,8,fine_tuning,0.124573,0.167785,0.115011,0.098186,0.313172,failed,0.608696,mig,0.78836,alto
0.443937,0.447368,0.188034,0.505415,0.492188,0.620332,0.675824,0.575588,liquid,0.819277,0.825,0.481422,0.771739,0.730159,0.797673,8,fine_tuning,0.187103,0.147651,0.182352,0.099477,0.142965,success,0.108696,temporal_sharing,0.59903,baixo
0.379086,0.384211,0.200855,0.341757,0.382813,0.410788,0.436813,0.454756,hybrid,0.783133,0.65,0.709208,0.793478,0.809524,0.832579,4,fine_tuning,0.374695,0.107383,0.1129,0.138463,0.045943,success,0.071304,temporal_sharing,0.471517,baixo
0.59051,0.582456,0.367521,0.374248,0.679687,0.605809,0.590659,0.667994,hybrid,0.626506,0.8875,0.542811,0.75,0.746032,0.756949,8,fine_tuning,0.374695,0.040268,0.052805,0.043337,0.167937,success,0.104348,full_gpu,0.824868,moderado
0.316169,0.314035,0.147436,0.403129,0.515625,0.460581,0.456044,0.337858,hybrid,0.542169,0.7625,0.495961,0.630435,0.68254,0.721396,4,inference,0.062042,0,0.051004,0.024047,0.022215,success,0.047826,mig,0.382981,baixo
0.168893,0.168421,0.068376,0.129964,0.273438,0.375519,0.428571,0.253565,hybrid,0.807229,0.6625,0.326333,0.826087,0.666667,0.605042,4,fine_tuning,0.030777,0.013423,0.053661,0.063096,0.075023,success,0.035652,temporal_sharing,0.234127,baixo
0.74174,0.736842,0.128205,0.140794,0.367187,0.506224,0.568681,0.443051,liquid,0.915663,0.725,0.819063,0.771739,0.84127,0.727214,16,training,0.374695,0.14094,0.725881,0.239982,0.269661,success,0.141739,full_gpu,0.871076,baixo
0.465817,0.461404,0.147436,0.245487,0.492188,0.616183,0.67033,0.603521,hybrid,0.698795,0.725,0.660743,0.804348,0.793651,0.83969,8,fine_tuning,0.187103,0.107383,0.072817,0.1124,0.116642,success,0.107826,full_gpu,0.587566,baixo
0.377856,0.381579,0.25,0.394705,0.492188,0.585062,0.629121,0.449198,air,0.361446,0.4625,0.483037,0.336957,0.679474,0.426632,4,inference,0.124573,0,0.033841,0.026569,0.023458,success,0.26087,temporal_sharing,0.532628,alto
0.226274,0.225439,0.076923,0.222623,0.242188,0.348548,0.403846,0.286318,air,0.759036,0.65,0.500808,0.826087,0.698413,0.552036,4,fine_tuning,0.187103,0.040268,0.015319,0.045218,0.052592,success,0.026957,full_gpu,0.278483,baixo
0.865378,0.853509,0.141026,0.528279,0.429688,0.647303,0.733516,0.58862,liquid,0.795181,0.8125,0.726979,0.858696,0.825397,0.736264,16,training,1,0.731544,0.619327,0.326403,0.273607,success,0.225217,full_gpu,1,baixo
0.873374,0.859649,0.192308,0.54272,0.421875,0.628631,0.711538,0.650339,hybrid,0.771084,0.9375,0.699515,0.858696,0.793651,0.74596,16,training,0.374695,0.33557,0.440842,0.387844,0.222258,success,0.202609,full_gpu,1,baixo
0.404218,0.396491,0.126068,0.351384,0.375,0.585062,0.67033,0.524884,hybrid,0.73494,0.85,0.452342,0.771739,0.68254,0.609567,4,fine_tuning,0.124573,0.067114,0.164332,0.036763,0.081401,running,0.05913,full_gpu,0.55873,moderado
0.648506,0.651754,0.410256,0.611312,0.609375,0.740664,0.793956,0.727058,liquid,0.518072,0.65,0.733441,0.467391,0.809524,0.568843,8,fine_tuning,0.187103,0.14094,0.095825,0.094094,0.259121,success,0.617391,full_gpu,0.823633,alto
0.055975,0.055263,0.064103,0.064982,0.28125,0.074689,0.027473,0.041949,air,0.156627,0.275,0.038772,0.065217,0.079365,0.32256,2,idle,0.000489,0,0.001623,0.000323,0.000595,success,0,temporal_sharing,0.074162,baixo
0.33471,0.332456,0.141026,0.180505,0.484375,0.570539,0.612637,0.409413,hybrid,0.783133,0.875,0.620355,0.684783,0.761905,0.749192,4,fine_tuning,0.249634,0.107383,0.053956,0.143429,0.183774,success,0.057391,full_gpu,0.418959,moderado
0.335677,0.290351,0.130342,0.080626,0.359375,0.396266,0.425824,0.20537,hybrid,0.831325,0.8125,0.526656,0.858696,0.679474,0.50808,8,training,0.374695,0.194631,0.331203,0.50622,0.151343,success,0.066087,full_gpu,0.42134,baixo
0.48761,0.490351,0.042735,0.12515,0.140625,0.410788,0.521978,0.309285,liquid,0.795181,0.7375,0.718901,0.869565,0.873016,0.843568,8,training,0.249634,0.248322,0.619844,0.678446,0.182314,success,0.072174,full_gpu,0.657672,baixo
0.383831,0.380702,0.209858,0.551143,0.320313,0.518672,0.601648,0.528327,immersion,0.855422,0.75,0.594507,0.913043,0.746032,0.727214,8,fine_tuning,0.187103,0.147651,0.104016,0.156006,0.044106,success,0.083478,full_gpu,0.538536,baixo
0.389279,0.39386,0.24359,0.370638,0.492188,0.585062,0.629121,0.454165,hybrid,0.373494,0.475,0.491115,0.336957,0.634921,0.426632,4,inference,0.124573,0,0.036792,0.028615,0.023999,success,0.252174,temporal_sharing,0.541446,alto
0.753954,0.697368,0.790598,0.67148,0.765625,0.834025,0.862637,0.486944,hybrid,0.518072,0.625,0.822294,0.434783,0.873016,0.581771,16,fine_tuning,0.187103,0.234899,0.191753,0.173896,0.432085,failed,0.189565,full_gpu,0.964727,alto
0.543585,0.538596,0.230769,0.344164,0.476563,0.877593,0.942308,0.704682,air,0.518072,0.875,0.688207,0.456522,0.793651,0.61086,8,fine_tuning,0.374695,0.228188,0.084107,0.102022,0.180423,success,0.911304,full_gpu,0.809083,moderado
0.358963,0.364035,0.16453,0.377858,0.546875,0.593361,0.620879,0.502705,air,0.686747,0.7375,0.50727,0.695652,0.714286,0.5766,4,fine_tuning,0.249634,0.080537,0.214584,0.077583,0.116696,success,0.044348,full_gpu,0.485979,moderado
0.768014,0.762281,0.431624,0.67148,0.765625,0.844398,0.876374,0.734435,hybrid,0.506024,0.65,0.822294,0.423913,0.873016,0.588235,16,fine_tuning,0.249634,0.248322,0.176995,0.153434,0.399654,failed,0.773913,full_gpu,0.964727,alto
0.257645,0.251754,0.147436,0.209386,0.296875,0.346473,0.381868,0.372971,air,0.686747,0.5125,0.529887,0.565217,0.650794,0.456367,4,inference,0.015144,0,0.052451,0.049974,0.018377,success,0.06087,mig,0.315344,moderado
0.86116,0.864912,0.559829,0.864019,0.882813,0.927386,0.945055,0.921314,air,0.638554,0.725,0.919225,0.478261,0.777778,0.646412,16,training,0.499756,0.630872,0.575466,0.613834,0.648289,failed,0.921739,full_gpu,1,alto
0.250264,0.245614,0.098291,0.33574,0.390625,0.439834,0.472527,0.547556,air,0.566265,0.5,0.491115,0.630435,0.619048,0.606335,4,inference,0.062042,0,0.022314,0.030948,0.017783,success,0.045217,full_gpu,0.346561,baixo
0.223902,0.225439,0.277778,0.33213,0.492188,0.493776,0.508242,0.585227,hybrid,0.638554,0.525,0.332795,0.391304,0.555556,0.422107,4,inference,0.030777,0,0.03877,0.025134,0.008486,success,0.053913,full_gpu,0.312963,moderado
0.398858,0.400877,0.294872,0.527076,0.578125,0.73444,0.796703,0.564031,liquid,0.614458,0.65,0.693053,0.554348,0.793651,0.601164,4,fine_tuning,0.124573,0.073826,0.091368,0.086078,0.122642,success,0.061739,full_gpu,0.592857,moderado
0.089192,0.088596,0.070513,0.061372,0.265625,0.172199,0.162088,0.262614,air,0.506024,0.4125,0.101777,0.673913,0.380952,0.488688,1,inference,0.007328,0,0.001771,0.006982,0.011513,success,0,temporal_sharing,0.122487,baixo
0.078032,0.077193,0.038462,0.188929,0.242188,0.105809,0.082418,0.128799,hybrid,0.39759,0.65,0.135703,0.554348,0.679474,0.534583,2,inference,0.124573,0,0.009062,0.002529,0.008594,success,0.005217,full_gpu,0.093651,baixo
0.534271,0.539474,0.378205,0.605295,0.570313,0.678423,0.725275,0.63116,liquid,0.409639,0.525,0.652666,0.358696,0.761905,0.478345,8,fine_tuning,0.187103,0.14094,0.103204,0.092048,0.269931,failed,0.513043,full_gpu,0.691358,alto
0.136731,0.137719,0.149573,0.323706,0.265625,0.504149,0.601648,0.314055,hybrid,0.493976,0.5875,0.345719,0.543478,0.492063,0.516484,1,inference,0.062042,0,0.059594,0.006314,0.028377,success,0.006087,mig,0.170106,moderado
0.901142,0.726316,0.271368,0.406739,0.726563,0.813278,0.848901,0.486944,hybrid,0.518072,0.625,0.033926,0.097826,0.857143,0.549451,16,training,0.249634,0.597315,0.472159,0.531985,0.637479,aborted,0.721739,full_gpu,0.929453,alto
0.677153,0.675439,0.213675,0.334537,0.296875,0.452282,0.521978,0.607455,immersion,0.771084,0.8375,0.781906,0.684783,0.888889,0.765999,16,training,0.124573,0.281879,0.499579,0.568667,0.504135,success,0.186087,full_gpu,0.840212,moderado
0.794464,0.790351,0.399573,0.517449,0.6875,0.738589,0.763736,0.724698,liquid,0.710843,0.8875,0.791599,0.695652,0.84127,0.764059,16,training,0.374695,0.201342,0.558612,0.780574,0.434517,success,0.24087,full_gpu,1,moderado
0.676362,0.669298,0.061966,0.327316,0.460938,0.529046,0.565934,0.359496,liquid,0.771084,0.75,0.751212,0.913043,0.825397,0.829994,16,training,0.249634,0.308725,0.298986,0.767222,0.512999,success,0.137391,full_gpu,0.910847,baixo
0.774077,0.777193,0.271368,0.44284,0.6875,0.792531,0.835165,0.864316,air,0.084337,0.575,0.789984,0.119565,0.857143,0.588235,16,idle,0.00342,0,0.001668,0.000561,0.034268,running,0.24,full_gpu,0.982363,alto
0.723023,0.721053,0.275641,0.626955,0.53125,0.599585,0.634615,0.746435,hybrid,0.698795,0.825,0.812601,0.73913,0.825397,0.836458,16,training,0.249634,0.557047,0.434378,0.190593,0.320037,success,0.26087,full_gpu,1,moderado
0.008436,0.008772,0.064103,0.039711,0.09375,0.041494,0.049451,0.090784,air,0.012048,0.025,0.012924,0,0.015873,0.158371,1,idle,0.000489,0,0.000753,0.000228,0.003784,success,0,mig,0.012875,baixo
0.387083,0.382456,0.143162,0.167268,0.414063,0.396266,0.406593,0.486944,air,0.855422,0.875,0.368336,0.75,0.634921,0.601164,4,fine_tuning,0.187103,0.208054,0.121489,0.108976,0.088049,running,0.076522,full_gpu,0.542328,moderado
0.756678,0.751754,0.24359,0.493381,0.414063,0.609959,0.68956,0.642028,hybrid,0.927711,0.825,0.760905,0.673913,0.84127,0.751778,16,training,0.374695,0.402685,0.845378,0.570114,0.239717,success,0.166957,full_gpu,1,moderado
0.604569,0.609649,0.378205,0.599278,0.609375,0.719917,0.766484,0.650831,liquid,0.445783,0.575,0.701131,0.380435,0.679474,0.497738,8,fine_tuning,0.187103,0.167785,0.115011,0.099209,0.296957,success,0.6,mig,0.78836,alto
0.016608,0.015789,0.209858,0.21059,0.21875,0.072614,0.046703,0.02513,air,0.048193,0.25,0.033926,0.130435,0.063492,0.210084,1,idle,0,0,0.000236,0.00014,0.002594,success,0,none,0.037302,baixo
0.293761,0.305263,0.311966,0.555957,0.59375,0.661826,0.695055,0.664601,air,0.421687,0.7,0.536349,0.521739,0.650794,0.581771,4,inference,0.030777,0,0.038799,0.017319,0.00373,success,0.346087,temporal_sharing,0.50776,moderado
0.402988,0.399123,0.155983,0.154031,0.34375,0.375519,0.403846,0.399331,hybrid,0.662651,0.55,0.633279,0.48913,0.714286,0.561086,8,inference,0.249634,0,0.04668,0.023774,0.016053,success,0.094783,full_gpu,0.451058,moderado
0.786819,0.785965,0.401709,0.581227,0.6875,0.732365,0.755495,0.718944,hybrid,0.674699,0.95,0.694669,0.619565,0.777778,0.764059,16,training,0.124573,0.751678,0.64967,0.880946,0.535322,success,0.226087,full_gpu,1,moderado
0.929701,0.932456,0.517094,0.827918,0.921875,0.958506,0.972527,0.93115,air,0.590361,0.7,0.951535,0.478261,0.968254,0.659341,16,training,0.499756,0.798658,0.70829,0.757069,0.756392,failed,0.965217,temporal_sharing,1,alto
0.220475,0.222807,0.149573,0.323706,0.3125,0.450207,0.489011,0.446346,air,0.710843,0.5,0.439418,0.543478,0.679474,0.628313,4,inference,0.249634,0,0.051565,0.009934,0.007081,success,0.06,full_gpu,0.288007,baixo
0.340246,0.345614,0.111111,0.358604,0.429688,0.425311,0.43956,0.495082,hybrid,0.554217,0.6125,0.442649,0.608696,0.650794,0.508727,4,inference,0.062042,0,0.033708,0.05009,0.017945,success,0.050435,full_gpu,0.469665,baixo
0.301494,0.307018,0.130342,0.255114,0.351563,0.456432,0.508242,0.462673,air,0.638554,0.85,0.6979,0.76087,0.746032,0.667098,4,fine_tuning,0.187103,0.04698,0.088136,0.14531,0.029512,success,0.034783,full_gpu,0.367725,moderado
0.225132,0.226316,0.155983,0.545126,0.523437,0.483402,0.483516,0.466755,liquid,0.626506,0.475,0.294023,0.576087,0.52381,0.519069,4,inference,0.124573,0,0.064523,0.016952,0.011891,success,0.041739,temporal_sharing,0.273986,moderado
0.105448,0.105263,0.209858,0.215403,0.023438,0.082988,0.129121,0.220911,air,0.46988,0.575,0.266559,0.663043,0.444444,0.570136,1,inference,0.015144,0,0.019451,0.003739,0.008486,running,0,full_gpu,0.132981,baixo
0.327329,0.332456,0.232906,0.410349,0.445312,0.514523,0.552198,0.526065,hybrid,0.674699,0.8125,0.521809,0.771739,0.714286,0.707175,4,fine_tuning,0.249634,0.154362,0.095057,0.145174,0.032593,success,0.076522,full_gpu,0.51746,moderado
0.959578,0.953509,0.527778,0.773767,0.921875,0.96888,0.986264,0.916396,air,0.60241,0.7125,0.96769,0.48913,0.825397,0.678733,16,training,0.499756,0.765101,0.649257,0.716145,0.756392,failed,0.208696,full_gpu,1,alto
0.194288,0.190351,0.102564,0.109507,0.125,0.246888,0.31044,0.486944,hybrid,0.698795,0.375,0.31664,0.695652,0.52381,0.387201,4,inference,0.030777,0,0.002081,0.016862,0.010918,success,0.052174,temporal_sharing,0.23933,baixo
0.335237,0.333333,0.128205,0.045728,0.148438,0.319502,0.398352,0.215452,hybrid,0.855422,0.875,0.471729,0.858696,0.698413,0.762767,4,fine_tuning,0.124573,0.107383,0.088402,0.042003,0.014972,success,0.030435,full_gpu,0.46649,baixo
0.744464,0.744737,0.288462,0.587244,0.515625,0.585062,0.620879,0.595013,hybrid,0.879518,0.7625,0.817447,0.793478,0.873016,0.807369,16,training,0.249634,0.469799,0.508139,0.937897,0.197989,success,0.222609,full_gpu,0.963051,moderado
0.1558,0.15614,0.113248,0.320096,0.4375,0.458506,0.450549,0.312039,hybrid,0.39759,0.475,0.418417,0.728261,0.52381,0.62702,2,inference,0.249634,0,0.01737,0.030521,0.013297,success,0.012174,mig,0.199471,moderado
0.724077,0.727193,0.42094,0.647413,0.726563,0.823651,0.862637,0.724599,air,0.46988,0.6625,0.798061,0.402174,0.857143,0.562379,16,fine_tuning,0.187103,0.208054,0.154858,0.143203,1,failed,0.226957,full_gpu,0.929453,alto
0.081371,0.085088,0.123932,0.507822,0.476563,0.628631,0.692308,0.349956,air,0.277108,0.2875,0.174475,0.293478,0.253968,0.323853,2,idle,0.000489,0,0.006007,0.0007,0.01308,success,0.015652,mig,0.118254,moderado
0.729438,0.723684,0.123932,0.22142,0.429688,0.466805,0.494505,0.52877,immersion,0.722892,1,0.765751,0.73913,0.793651,0.689076,16,training,0.749878,0.85906,0.715374,0.851555,0.631858,success,0.20087,full_gpu,0.861111,moderado
0.616432,0.615789,0.155983,0.211793,0.507813,0.541494,0.565934,0.594177,liquid,0.831325,0.875,0.79483,0.76087,0.84127,0.707822,8,training,0.124573,0.42953,0.396641,0.409215,0.28339,success,0.108696,full_gpu,0.7694,moderado
0.353251,0.357018,0.192308,0.298436,0.453125,0.564315,0.615385,0.414773,liquid,0.385542,0.5,0.466882,0.358696,0.619048,0.413704,4,inference,0.062042,0,0.026461,0.016337,0.021296,running,0.234783,mig,0.506173,alto
0.984183,0.991228,0.130342,0.219013,0.429688,0.587137,0.653846,0.633127,liquid,0.86747,0.8375,0.896607,0.826087,0.888889,0.884939,16,training,0.374695,0.402685,0.608303,0.97242,0.428409,success,0.233913,full_gpu,1,baixo
0.438401,0.431579,0.294872,0.498195,0.226563,0.423237,0.508242,0.455149,hybrid,0.626506,0.775,0.536349,0.663043,0.714286,0.67033,8,inference,0.249634,0,0.0705,0.018293,0.003405,running,0.38087,temporal_sharing,0.6,moderado
0.260369,0.255263,0.132479,0.44284,0.4375,0.435685,0.450549,0.4521,hybrid,0.481928,0.775,0.315024,0.836957,0.587302,0.647059,4,inference,0.062042,0,0.056362,0.016443,0.010918,success,0.056522,mig,0.351058,baixo
0.264938,0.268421,0.029915,0.293622,0.265625,0.325726,0.365385,0.193715,air,0.819277,0.5625,0.470113,0.891304,0.730159,0.49192,4,fine_tuning,0.249634,0.060403,0.054251,0.025835,0.04416,success,0.056522,full_gpu,0.370547,baixo
0.551757,0.546491,0.149573,0.472924,0.382813,0.651452,0.755495,0.602243,immersion,0.759036,0.825,0.733441,0.73913,0.857143,0.794441,8,training,0.749878,0.590604,0.769905,0.430962,0.389871,success,0.093043,full_gpu,0.748589,baixo
0.869947,0.87193,0.50641,0.791817,0.882813,0.937759,0.958791,0.90656,air,0.578313,0.6875,0.927302,0.467391,0.679474,0.646412,16,training,0.374695,0.731544,0.664015,0.716145,0.729366,success,0.930435,full_gpu,1,alto
0.896309,0.890351,0.209858,0.851986,0.921875,0.958506,0.972527,0.940986,air,0.60241,0.7125,0.943457,0.48913,0.968254,0.659341,16,training,0.374695,0.832215,0.737806,0.777531,0.799632,failed,0.956522,full_gpu,1,alto
0.530316,0.533333,0.273504,0.466907,0.40625,0.582988,0.656593,0.530638,hybrid,0.506024,0.7625,0.402262,0.576087,0.666667,0.609567,8,fine_tuning,0.062042,0.174497,0.123984,0.166208,0.121723,success,0.117391,temporal_sharing,0.729365,moderado
0.168541,0.17193,0.126068,0.196149,0.320313,0.466805,0.532967,0.299597,air,0.518072,0.4875,0.387722,0.663043,0.539683,0.614092,2,inference,0.030777,0,0.06681,0.034778,0.026323,success,0.013043,temporal_sharing,0.245591,moderado
0.218278,0.219298,0.021368,0.180505,0.140625,0.414938,0.527473,0.36889,air,0.855422,0.8875,0.450727,0.858696,0.730159,0.771816,2,fine_tuning,0.249634,0.100671,0.019082,0.026568,0.030971,success,0.010435,temporal_sharing,0.257143,baixo
0.137698,0.135965,0.100427,0.176895,0.320313,0.369295,0.403846,0.22155,air,0.542169,0.5375,0.263328,0.597826,0.47619,0.462831,1,inference,0.062042,0,0.065748,0.041104,0.010864,success,0.001739,temporal_sharing,0.165608,moderado
0.215729,0.213158,0.111111,0.38452,0.492188,0.510373,0.53022,0.393577,hybrid,0.554217,0.6875,0.470113,0.402174,0.571429,0.536522,2,inference,0.007328,0,0.050635,0.021935,0.026377,success,0.023478,mig,0.259171,moderado
0.724429,0.721053,0.393162,0.38452,0.671875,0.786307,0.832418,0.830235,liquid,0.746988,0.775,0.819063,0.652174,0.904762,0.782805,16,training,0.749878,0.557047,0.906743,0.916154,0.469758,success,0.243478,full_gpu,1,moderado
0.584007,0.574561,0.17094,0.345367,0.40625,0.605809,0.686813,0.486944,hybrid,0.975904,0.8625,0.751212,0.869565,0.857143,0.769877,8,training,0.249634,0.879195,0.47821,0.745038,0.446949,success,0.113913,full_gpu,0.803527,baixo
0.264938,0.264912,0.267094,0.388688,0.445312,0.43361,0.445055,0.377053,air,0.373494,0.5,0.453958,0.5,0.571429,0.440207,4,inference,0.007328,0,0.040393,0.033427,0.010486,success,0.051304,temporal_sharing,0.361728,moderado
0.755712,0.757895,0.25641,0.38452,0.765625,0.834025,0.862637,0.596735,liquid,0.518072,0.625,0.814216,0.434783,0.857143,0.568843,16,inference,0.030777,0,0.026461,0.015314,0.967029,failed,0.284348,mig,0.964727,alto
0.644991,0.639474,0.33547,0.527076,0.648438,0.73029,0.766484,0.616406,hybrid,0.433735,0.5625,0.725363,0.391304,0.809524,0.504202,8,fine_tuning,0.124573,0.154362,0.115011,0.094094,0.286147,success,0.617391,temporal_sharing,0.823633,alto
0.329877,0.333333,0.055556,0.098676,0.273438,0.334025,0.373626,0.28922,hybrid,0.638554,0.875,0.764136,0.684783,0.809524,0.767292,4,fine_tuning,0.374695,0.067114,0.071607,0.040149,0.122318,success,0.063478,mig,0.448501,moderado
0.622144,0.625439,0.388889,0.575211,0.609375,0.751037,0.807692,0.682797,immersion,0.542169,0.7,0.709208,0.445652,0.793651,0.575307,8,training,0.249634,0.463087,0.206511,0.255745,0.486136,failed,0.591304,temporal_sharing,0.78836,alto
0.394552,0.4,0.113248,0.219013,0.242188,0.43361,0.516484,0.394561,liquid,0.650602,0.775,0.610662,0.771739,0.746032,0.731739,8,training,0.124573,0.167785,0.710902,0.451603,0.494081,success,0.053913,full_gpu,0.518871,baixo
0.207381,0.205263,0.087607,0.333333,0.398438,0.387967,0.401099,0.377545,liquid,0.385542,0.6375,0.495961,0.652174,0.603175,0.537815,2,inference,0.030777,0,0.072241,0.038075,0.026485,success,0.018261,temporal_sharing,0.283422,moderado
0.44464,0.448246,0.399573,0.719615,0.648438,0.709544,0.739011,0.486944,liquid,0.204819,0.3125,0.547658,0.184783,0.714286,0.394312,4,idle,0.000489,0,0.000266,0.000183,0.022377,running,0.313043,full_gpu,0.567901,alto
0.352548,0.35,0.115385,0.241877,0.351563,0.603734,0.703297,0.586555,hybrid,0.638554,0.875,0.712439,0.728261,0.793651,0.679379,4,fine_tuning,0.124573,0.14094,0.102245,0.072342,0.062807,success,0.061739,full_gpu,0.462698,baixo
0.490334,0.485088,0.282051,0.503008,0.53125,0.605809,0.642857,0.498377,immersion,0.614458,0.725,0.596123,0.608696,0.730159,0.588235,8,training,0.374695,0.395973,0.324577,0.337594,0.518567,running,0.46087,mig,0.656085,alto
0.783568,0.782456,0.121795,0.32491,0.492188,0.63278,0.692308,0.639864,hybrid,0.963855,0.925,0.877221,0.858696,0.888889,0.822237,16,training,0.249634,0.442953,0.646497,0.783994,0.228474,success,0.171304,full_gpu,0.931834,moderado
0.479965,0.480702,0.123932,0.146811,0.34375,0.504149,0.574176,0.467739,hybrid,0.831325,0.7375,0.760905,0.782609,0.761905,0.800905,4,training,0.499756,0.234899,0.539412,0.237037,0.397438,success,0.08,full_gpu,0.596384,baixo
0.402109,0.400877,0.267094,0.433213,0.4375,0.591286,0.656593,0.546326,hybrid,0.60241,0.8,0.499192,0.663043,0.730159,0.636716,4,fine_tuning,0.249634,0.181208,0.045736,0.13753,0.169504,success,0.066087,temporal_sharing,0.563139,moderado
0.588752,0.586842,0.198718,0.312876,0.296875,0.585062,0.697802,0.509541,liquid,0.783133,0.775,0.714055,0.923913,0.793651,0.982547,8,training,1,0.295302,0.843401,0.677826,0.333982,running,0.112174,full_gpu,0.784744,baixo
0.603954,0.609649,0.036325,0.215403,0.265625,0.394191,0.456044,0.494295,immersion,0.831325,0.775,0.579968,0.793478,0.68254,0.775695,16,training,0.249634,0.228188,0.226346,0.764622,0.313226,success,0.166957,full_gpu,0.708995,baixo
0.603515,0.597368,0.202991,0.424789,0.4375,0.516598,0.557692,0.517409,immersion,0.987952,0.9625,0.95315,0.913043,0.809524,0.826761,16,training,1,0.657718,0.494724,0.334906,0.622291,success,0.168696,full_gpu,0.783774,baixo
0.618278,0.610526,0.202991,0.434416,0.4375,0.643154,0.725275,0.480083,hybrid,0.951807,0.9625,0.852989,0.967391,0.809524,0.914674,8,training,0.749878,0.90604,0.691333,0.836016,0.27031,success,0.146957,full_gpu,0.826896,baixo
0.774517,0.774561,0.087607,0.162455,0.492188,0.607884,0.659341,0.51377,liquid,0.831325,0.8125,0.80937,0.847826,0.857143,0.910795,16,training,0.749878,0.174497,0.215204,0.862699,0.228528,success,0.166087,full_gpu,0.959612,baixo
0.895431,0.887719,0.527778,0.839952,0.921875,0.751037,0.972527,0.833284,air,0.60241,0.7125,0.943457,0.48913,0.825397,0.659341,16,training,0.374695,0.798658,0.737806,0.777531,0.799632,aborted,0.714783,mig,1,alto
0.643234,0.636842,0.324786,0.515042,0.648438,0.73029,0.766484,0.60657,hybrid,0.433735,0.5625,0.725363,0.380435,0.809524,0.504202,8,fine_tuning,0.124573,0.154362,0.115011,0.094094,0.286147,failed,0.617391,mig,0.823633,alto
0.145343,0.139474,0.230769,0.415162,0.53125,0.570539,0.596154,0.352513,air,0.253012,0.3875,0.221325,0.304348,0.349206,0.318035,2,idle,0.001466,0,0.006553,0.0008,0.008486,success,0.038261,temporal_sharing,0.163933,moderado
0.046485,0.045614,0.019231,0.11432,0.0625,0.091286,0.126374,0.129733,hybrid,0.180723,0.05,0.098546,0.043478,0.111111,0.314803,2,idle,0.001466,0,0.001254,0.000603,0.001297,success,0,temporal_sharing,0.074339,baixo
0.476274,0.477193,0.431624,0.67148,0.570313,0.657676,0.697802,0.567227,air,0.240964,0.35,0.579968,0.217391,0.714286,0.387847,8,idle,0.00342,0,0.000782,0.000275,0.022377,aborted,0.443478,full_gpu,0.656085,alto
0.497276,0.492105,0.252137,0.169675,0.515625,0.576763,0.60989,0.60957,hybrid,0.626506,0.65,0.722132,0.673913,0.777778,0.597931,8,fine_tuning,0.062042,0.033557,0.093331,0.054899,0.066429,success,0.126957,full_gpu,0.611199,moderado
0.041301,0.040351,0.209858,0.157641,0.078125,0.018672,0.024725,0.051392,air,0.192771,0.275,0.042003,0.076087,0.047619,0.259211,4,idle,0.001466,0,0.001033,0.000847,0.003459,success,0,none,0.066843,baixo
0.214763,0.210526,0.188034,0.233454,0.3125,0.313278,0.332418,0.486944,air,0.457831,0.725,0.305331,0.554348,0.507937,0.511312,4,inference,0.062042,0,0.067371,0.040175,0.009081,success,0.066087,mig,0.290388,baixo
0.485062,0.480702,0.34188,0.575211,0.570313,0.66805,0.711538,0.581981,hybrid,0.590361,0.6625,0.612278,0.51087,0.746032,0.549451,8,fine_tuning,0.124573,0.127517,0.117962,0.092048,0.242906,running,0.452174,full_gpu,0.638448,alto
0.528998,0.529825,0.183761,0.495788,0.453125,0.533195,0.574176,0.584292,air,0.771084,0.9,0.735057,0.663043,0.809524,0.742081,4,training,0.749878,0.751678,0.532151,0.573695,0.12221,failed,0.103478,full_gpu,0.730511,moderado
0.361248,0.363158,0.036325,0.274368,0.164063,0.452282,0.568681,0.365742,liquid,0.795181,0.9375,0.592892,0.891304,0.761905,0.660633,8,training,0.124573,0.208054,0.264983,0.613942,0.1561,success,0.08087,full_gpu,0.436508,baixo
0.56239,0.55614,0.160256,0.220217,0.171875,0.5,0.629121,0.481115,liquid,0.783133,0.7,0.667205,0.771739,0.730159,0.864253,16,training,0.749878,0.395973,0.206438,0.484572,0.424464,success,0.150435,full_gpu,0.66164,baixo
0.922671,0.914912,0.570513,0.839952,0.960938,0.96888,0.980769,0.940986,air,0.253012,0.4,0.927302,0.173913,0.777778,0.581771,16,idle,0.001466,0,0.000635,0.000326,0.045079,failed,0.973913,mig,1,alto
0.399297,0.405263,0.106838,0.310469,0.421875,0.790456,0.467033,0.890184,air,0.759036,0.7875,0.407108,0.695652,0.619048,0.648998,4,fine_tuning,0.374695,0.060403,0.167609,0.025499,0.087725,success,0.776522,full_gpu,0.529453,moderado
0.819508,0.829825,0.119658,0.347774,0.546875,0.66805,0.71978,0.486944,immersion,0.795181,0.7875,0.743134,0.945652,0.809524,0.978022,16,training,1,0.704698,0.37688,0.238121,0.631209,success,0.237391,full_gpu,0.997002,baixo
0.236907,0.238596,0.098291,0.188929,0.367187,0.307054,0.304945,0.337218,hybrid,0.783133,0.7875,0.470113,0.804348,0.730159,0.683258,4,fine_tuning,0.187103,0.013423,0.035139,0.018305,0.011026,success,0.053913,mig,0.322134,baixo
0.223462,0.217544,0.068376,0.192539,0.273438,0.275934,0.296703,0.301023,hybrid,0.46988,0.475,0.466882,0.663043,0.587302,0.459599,4,inference,0.030777,0,0.022964,0.014176,0.001892,success,0.078261,mig,0.301235,moderado
0.087786,0.09386,0.192308,0.594465,0.460938,0.556017,0.601648,0.256369,air,0.373494,0.3875,0.153473,0.25,0.253968,0.287007,2,idle,0.00342,0,0.000266,0.000918,0.039403,success,0.026087,none,0.109788,moderado
0.378383,0.37193,0.036325,0.279182,0.46875,0.614108,0.675824,0.545982,liquid,0.831325,0.7125,0.562197,0.869565,0.809524,0.747899,4,training,0.749878,0.463087,0.110022,0.268217,0.233014,running,0.036522,full_gpu,0.494709,baixo
0.510896,0.502632,0.194444,0.38452,0.359375,0.616183,0.717033,0.42692,hybrid,1,1,0.927302,0.945652,0.793651,0.875889,8,training,0.499756,0.919463,0.627695,0.214144,0.304362,success,0.07913,full_gpu,0.684568,baixo
0.380668,0.380702,0.241453,0.32491,0.3125,0.412863,0.464286,0.422642,hybrid,0.831325,0.55,0.579968,0.663043,0.730159,0.617324,8,inference,0.030777,0,0.0665,0.039635,0.017188,success,0.077391,temporal_sharing,0.444797,moderado
0.233304,0.732456,0.831197,0.203369,0.421875,0.446058,0.46978,0.417921,liquid,0.409639,0.6375,0.491115,0.413043,0.587302,0.541694,4,inference,0.062042,0,0.088283,0.045189,0.029134,success,0.07913,temporal_sharing,0.323898,moderado
0.878735,0.882456,0.495726,0.76775,0.882813,0.937759,0.958791,0.901643,air,0.578313,0.7,0.927302,0.478261,0.952381,0.646412,16,training,0.374695,0.697987,0.649257,0.705914,0.69153,aborted,0.24087,mig,1,alto
0.108875,0.108772,0.051282,0.051745,0.328125,0.221992,0.206044,0.270139,hybrid,0.638554,0.6375,0.098546,0.75,0.365079,0.626374,2,inference,0.124573,0,0.017149,0.007283,0.005946,success,0.009565,full_gpu,0.145503,baixo
0.391213,0.391228,0.121795,0.191336,0.46875,0.645228,0.637363,0.602784,liquid,0.843373,0.675,0.780291,0.804348,0.825397,0.851325,8,fine_tuning,0.249634,0.167785,0.037368,0.129272,0.091995,success,0.101739,full_gpu,0.48448,baixo
0.3558,0.353509,0.175214,0.243081,0.414063,0.537344,0.593407,0.423281,liquid,0.554217,0.7375,0.476575,0.76087,0.666667,0.630252,4,fine_tuning,0.124573,0.187919,0.063136,0.056412,0.074807,success,0.044348,mig,0.497619,moderado
0.099649,0.100877,0.042735,0.358604,0.375,0.404564,0.431319,0.919494,hybrid,0.337349,0.7125,0.264943,0.163043,0.492063,0.59276,1,inference,0.124573,0,0.088165,0.027707,0.014648,success,0.001739,mig,0.138713,moderado
0.031634,0.031579,0.138889,0.140794,0.226563,0.143154,0.137363,0.256762,air,0.277108,0.3625,0.108239,0.076087,0.111111,0.302521,2,idle,0,0,0.001919,0.000699,0.000811,success,0,none,0.037654,baixo
0.482777,0.487719,0.224359,0.382671,0.429688,0.508299,0.549451,0.47423,liquid,0.939759,1,0.663974,0.826087,0.777778,0.778927,8,training,0.249634,0.691275,0.759855,0.799384,0.36117,aborted,0.086957,full_gpu,0.598589,baixo
0.845343,0.85,0.228632,0.340554,0.804688,0.875519,0.903846,0.881971,air,0.506024,0.5875,0.862682,0.434783,0.84127,0.601164,16,training,0.124573,0.865772,0.354093,0.347825,0.675315,failed,0.913043,full_gpu,1,alto
0.481547,0.485965,0.207265,0.472924,0.53125,0.626556,0.67033,0.547556,hybrid,0.26506,0.3875,0.579968,0.228261,0.714286,0.404008,8,idle,0.007328,0,0.001299,0.000449,0.03643,running,0.434783,mig,0.664903,alto
0.362039,0.357895,0.113248,0.468111,0.554688,0.514523,0.513736,0.428642,hybrid,0.542169,0.625,0.575121,0.673913,0.714286,0.740789,4,inference,0.062042,0,0.036039,0.043221,0.008594,success,0.050435,mig,0.488007,baixo
0.921265,0.922807,0.230769,0.509025,0.375,0.556017,0.631868,0.745058,hybrid,0.771084,0.8625,0.962843,0.641304,0.888889,0.840983,16,training,0.749878,0.798658,0.391712,0.736544,0.553862,success,0.189565,full_gpu,1,moderado
0.716081,0.72193,0.352564,0.645006,0.640625,0.740664,0.782967,0.667699,hybrid,0.626506,0.875,0.812601,0.619565,0.904762,0.782159,16,training,0.249634,0.657718,0.258726,0.54532,0.186476,success,0.195652,full_gpu,0.968607,moderado
0.669596,0.672807,0.209858,0.695548,0.726563,0.771784,0.793956,0.719681,liquid,0.457831,0.5625,0.741519,0.347826,0.825397,0.53329,8,fine_tuning,0.187103,0.194631,0.125341,0.124787,0.329388,aborted,0.634783,full_gpu,0.805996,alto
0.732865,0.735088,0.196581,0.334537,0.726563,0.792531,0.821429,0.680338,air,0.349398,0.475,0.798061,0.282609,0.857143,0.465417,16,inference,0.030777,0,0.022034,0.011222,0.030485,running,0.773913,mig,0.929453,alto
0.137873,0.132456,0.117521,0.267148,0.359375,0.524896,0.596154,0.266352,liquid,0.626506,0.6625,0.242326,0.641304,0.460317,0.508727,1,inference,0.062042,0,0.063003,0.047092,0.018972,success,0.005217,mig,0.152822,moderado
0.338137,0.337719,0.119658,0.492178,0.421875,0.568465,0.631868,0.406757,hybrid,0.855422,0.825,0.463651,0.771739,0.698413,0.574014,4,fine_tuning,0.124573,0.120805,0.217359,0.172807,0.383763,failed,0.066087,full_gpu,0.4306,moderado
0.716169,0.720175,0.33547,0.490975,0.6875,0.771784,0.807692,0.766401,hybrid,0.421687,0.55,0.725363,0.391304,0.84127,0.523594,8,fine_tuning,0.062042,0.134228,0.076639,0.06647,0.213178,failed,0.608696,temporal_sharing,0.823633,alto
0.385677,0.386842,0.17735,0.43201,0.445312,0.516598,0.620879,0.567227,immersion,0.903614,0.7625,0.718901,0.869565,0.793651,0.786037,4,training,0.749878,0.208054,0.29968,0.850836,0.422193,success,0.058261,temporal_sharing,0.524074,baixo
0.301406,0.297368,0.202991,0.256318,0.539063,0.491701,0.489011,0.486944,liquid,0.590361,0.65,0.365105,0.641304,0.619048,0.56044,4,inference,0.062042,0,0.035818,0.010292,0.019296,success,0.05913,temporal_sharing,0.38642,baixo
0.762214,0.749123,0.228632,0.555957,0.328125,0.556017,0.648352,0.506688,liquid,0.939759,0.8125,0.820679,0.967391,0.679474,0.895281,16,training,0.374695,0.718121,0.22797,0.230256,0.216259,success,0.149565,full_gpu,0.868342,baixo
0.119332,0.117544,0.07906,0.109507,0.210937,0.244813,0.277473,0.144831,hybrid,0.614458,0.7125,0.339257,0.467391,0.460317,0.401422,4,inference,0.030777,0,0.017843,0.021998,0.001513,running,0.023478,mig,0.136067,baixo
0,0,0.100427,0.602888,0.523437,0.609959,0.651099,0.206551,hybrid,0.072289,0.2125,0.063005,0.163043,0.031746,0.312864,1,idle,0,0,0.000945,0.000309,0.017837,running,0,none,0,moderado
0.424692,0.418421,0.059829,0.131167,0.429688,0.460581,0.486264,0.343267,hybrid,0.86747,0.7625,0.560582,0.793478,0.698413,0.738203,8,training,0.124573,0.241611,0.533804,0.237037,0.500622,success,0.089565,full_gpu,0.521869,baixo
0.345518,0.348246,0.209402,0.312876,0.328125,0.456432,0.516484,0.462575,hybrid,0.506024,0.5375,0.394184,0.423913,0.571429,0.505495,8,inference,0.007328,0,0.079015,0.017532,0.01254,success,0.366087,temporal_sharing,0.494444,moderado
0.065905,0.065789,0.094017,0.173285,0.21875,0.043568,0.008242,0.054342,air,0.048193,0.2875,0.016155,0.130435,0.015873,0.119586,2,idle,0.007328,0,0,0.000319,0.002432,success,0,mig,0.095767,baixo
0.957821,0.961404,0.50641,0.67148,1,1,1,1,air,0.674699,0.775,0.983845,0.532609,1,0.711054,16,training,0.749878,0.798658,0.737806,0.869611,0.810443,success,1,full_gpu,1,alto
0.521793,0.515789,0.297009,0.616125,0.554688,0.686722,0.741758,0.575834,hybrid,0.481928,0.9,0.657512,0.565217,0.809524,0.699418,8,fine_tuning,0.187103,0.040268,0.079296,0.16793,0.165883,success,0.131304,full_gpu,0.759524,moderado
0.028998,0.029825,0.074786,0.072202,0.257813,0.112033,0.085165,0.013868,air,0.216867,0.125,0.058158,0.076087,0.031746,0.22883,2,idle,0.007328,0,0.000797,0,0.001784,success,0,none,0.033245,baixo
0.831283,0.834211,0.292735,0.430806,0.84375,0.875519,0.89011,0.486944,hybrid,0.493976,0.6125,0.870759,0.402174,0.679474,0.572075,16,training,0.249634,0.66443,0.442642,0.511523,0.66991,success,0.869565,full_gpu,1,alto
0.490246,0.482456,0.209858,0.492178,0.375,0.512448,0.574176,0.368791,hybrid,0.662651,0.7,0.65105,0.847826,0.809524,0.800905,8,fine_tuning,0.187103,0.174497,0.065541,0.159085,0.107021,running,0.107826,full_gpu,0.662081,baixo
0.025044,0.025439,0.038462,0.063779,0.117188,0.070539,0.07967,0.486944,air,0.156627,0.25,0.07916,0.173913,0.126984,0.281189,1,idle,0,0,0.000251,0.000339,0,running,0,mig,0.033598,baixo
0.789104,0.791228,0.399573,0.623345,0.804688,0.854772,0.876374,0.778696,air,0.46988,0.5875,0.838449,0.326087,0.888889,0.555915,16,training,0.374695,0.597315,0.38361,0.429674,0.540187,failed,0.826087,temporal_sharing,1,alto
0.753954,0.757895,0.25641,0.364621,0.765625,0.834025,0.862637,0.596735,liquid,0.518072,0.625,0.814216,0.434783,0.857143,0.568843,16,inference,0.030777,0,0.026461,0.015314,0.032106,running,0.73913,mig,0.964727,alto
0.24051,0.242982,0.07906,0.279182,0.15625,0.410788,0.516484,0.198534,liquid,0.843373,0.8,0.505654,0.652174,0.666667,0.654169,4,fine_tuning,0.093307,0.067114,0.029206,0.038097,0.05124,success,0.030435,mig,0.309612,baixo
0.909754,0.901754,0.378205,0.371841,0.507813,0.657676,0.71978,0.757303,hybrid,0.698795,0.9,0.928918,0.641304,0.873016,0.816419,16,training,0.249634,0.161074,0.748225,0.61222,0.642668,running,0.22,full_gpu,1,moderado
0.470211,0.465789,0.166667,0.486161,0.515625,0.526971,0.543956,0.367611,hybrid,0.795181,0.85,0.752827,0.804348,0.809524,0.617324,8,fine_tuning,0.374695,0.067114,0.208194,0.155511,0.059889,success,0.115652,full_gpu,0.545503,baixo
0.364938,0.364035,0.181624,0.358604,0.398438,0.524896,0.582418,0.491049,air,0.759036,0.6875,0.691438,0.902174,0.825397,0.626374,4,fine_tuning,0.249634,0.167785,0.15133,0.037531,0.147019,success,0.073913,full_gpu,0.483069,baixo
0.607118,0.597368,0.108974,0.126354,0.148438,0.427386,0.541209,0.379217,immersion,0.759036,0.775,0.717286,0.978261,0.698413,0.647705,8,training,0.249634,0.630872,0.240352,0.290251,0.125074,success,0.085217,full_gpu,0.767989,baixo
0.529789,0.535965,0.275641,0.458484,0.53125,0.512448,0.519231,0.464296,hybrid,0.686747,0.725,0.497577,0.782609,0.730159,0.75307,8,fine_tuning,0.062042,0.181208,0.111852,0.050799,0.114048,success,0.126087,full_gpu,0.713933,moderado
0.237873,0.240351,0.311966,0.286402,0.539063,0.504149,0.505495,0.37784,hybrid,0.46988,0.675,0.450727,0.51087,0.603175,0.473174,2,inference,0.062042,0,0.085051,0.011095,0.024809,success,0.055652,temporal_sharing,0.320106,moderado
0.678647,0.67807,0.055556,0.34296,0.226563,0.427386,0.513736,0.483476,immersion,0.951807,0.75,0.903069,0.847826,0.888889,0.630252,8,training,0.249634,0.161074,0.21755,0.812534,0.508891,success,0.097391,full_gpu,0.910053,baixo
0.321002,0.321053,0.055556,0.297232,0.523437,0.497925,0.502747,0.512,liquid,0.746988,0.7,0.55412,0.815217,0.746032,0.700711,4,fine_tuning,0.249634,0.040268,0.103898,0.066954,0.072591,success,0.049565,full_gpu,0.415256,moderado
0.332865,0.332456,0.160256,0.38452,0.507813,0.489627,0.497253,0.345628,air,0.759036,0.8,0.594507,0.532609,0.666667,0.535876,4,fine_tuning,0.030777,0.060403,0.118818,0.097538,0.135776,success,0.048696,full_gpu,0.390741,moderado
0.02645,0.026316,0.166667,0.170878,0.125,0.041494,0.101648,0.237976,hybrid,0.289157,0.1625,0.15832,0.25,0.15873,0.252101,2,idle,0,0,0.000162,0.000052,0.000595,success,0,mig,0.039947,baixo
0.704569,0.700877,0.226496,0.419976,0.320313,0.560166,0.656593,0.579178,hybrid,0.759036,0.7625,0.959612,0.73913,0.904762,0.822883,16,training,0.124573,0.456376,0.861317,0.754363,0.146479,success,0.186087,full_gpu,0.871781,moderado
0.633304,0.627193,0.07906,0.231047,0.429688,0.462656,0.489011,0.593636,hybrid,0.963855,0.8625,0.890145,0.880435,0.873016,0.760181,8,training,0.374695,0.832215,0.677858,0.475838,0.20961,success,0.14087,full_gpu,0.87769,moderado
0.465729,0.461404,0.260684,0.406739,0.53125,0.636929,0.684066,0.010573,hybrid,0.301205,0.4125,0.579968,0.26087,0.904762,0.400776,8,idle,0.00342,0,0.001151,0.000428,0.026701,success,0.443478,mig,0.638448,alto
0.840861,0.832456,0.286325,0.38452,0.46875,0.543568,0.582418,0.641389,immersion,0.939759,0.9125,0.893376,0.663043,0.873016,0.802198,16,training,0.749878,0.201342,0.48764,0.862187,0.154965,success,0.152174,full_gpu,1,moderado
0.348155,0.352632,0.121795,0.308063,0.367187,0.412863,0.445055,0.308351,hybrid,0.807229,0.7,0.617124,0.880435,0.793651,0.782805,4,fine_tuning,0.030777,0.073826,0.032291,0.076426,0.064915,success,0.042609,full_gpu,0.431129,baixo
0.45536,0.457895,0.08547,0.357401,0.523437,0.647303,0.700549,0.61316,liquid,0.855422,0.75,0.458805,0.913043,0.761905,0.70265,4,fine_tuning,0.374695,0.134228,0.211913,0.097945,0.153938,success,0.047826,full_gpu,0.535538,baixo
0.130844,0.130702,0.096154,0.20698,0.101563,0.141079,0.178571,0.17724,air,0.614458,0.625,0.339257,0.782609,0.650794,0.691661,2,inference,0.030777,0,0.00394,0.02185,0.004811,success,0.015652,temporal_sharing,0.16164,baixo
0.709402,0.717544,0.211538,0.270758,0.5625,0.711618,0.771978,0.564719,immersion,0.843373,0.9125,0.68336,0.945652,0.857143,0.853911,16,training,1,0.637584,0.751457,0.697667,0.222799,success,0.190435,full_gpu,0.811111,baixo
0.014499,0.014035,0.036325,0.157641,0.085938,0.147303,0.192308,0.094079,air,0.012048,0.2875,0.006462,0.119565,0.047619,0.158371,1,idle,0,0,0.001122,0.000261,0.002432,success,0,none,0.033333,baixo
0.52188,0.515789,0.297009,0.4284,0.570313,0.66805,0.711538,0.62993,air,0.493976,0.8,0.668821,0.434783,0.761905,0.619263,8,fine_tuning,0.249634,0.107383,0.11625,0.06085,0.185503,failed,0.308696,full_gpu,0.81843,moderado
0.680141,0.67807,0.200855,0.433213,0.554688,0.645228,0.686813,0.639127,liquid,0.650602,0.95,0.93538,0.847826,0.793651,0.729153,16,training,0.249634,0.697987,0.559911,0.938243,0.386898,success,0.153913,full_gpu,0.836684,baixo
0.34464,0.348246,0.16453,0.466907,0.414063,0.46888,0.502747,0.473739,hybrid,0.566265,0.875,0.579968,0.717391,0.746032,0.621202,4,inference,0.062042,0,0.062634,0.033289,0.019458,success,0.045217,mig,0.454409,baixo
0.355536,0.357018,0.166667,0.158845,0.476563,0.493776,0.513736,0.404888,hybrid,0.819277,0.825,0.57189,0.76087,0.746032,0.70459,4,fine_tuning,0.374695,0.134228,0.039581,0.143187,0.122047,success,0.069565,mig,0.419312,moderado
0.062127,0.060526,0.202991,0.649819,0.476563,0.558091,0.598901,0.321186,air,0.409639,0.4,0.229402,0.26087,0.301587,0.345831,2,idle,0.001466,0,0.003808,0.001158,0.017783,running,0.218261,mig,0.095855,moderado
0.769772,0.767544,0.683761,0.659446,0.765625,0.844398,0.876374,0.729517,liquid,0.506024,0.6125,0.822294,0.423913,0.873016,0.581771,16,fine_tuning,0.187103,0.194631,0.162237,0.143203,0.399654,failed,0.773913,full_gpu,0.982363,alto
0.565641,0.559649,0.267094,0.504212,0.476563,0.443983,0.447802,0.547064,hybrid,0.783133,0.675,0.657512,0.663043,0.793651,0.650937,8,fine_tuning,0.249634,0.087248,0.180862,0.131393,0.144046,success,0.126957,full_gpu,0.692063,moderado
0.458348,0.461404,0.155983,0.463297,0.4375,0.558091,0.612637,0.500295,hybrid,0.73494,0.75,0.705977,0.75,0.793651,0.720103,4,fine_tuning,0.249634,0.221477,0.167122,0.096369,0.165991,success,0.062609,full_gpu,0.636772,moderado
0.046573,0.046491,0.051282,0.212996,0.28125,0.080913,0.035714,0.067572,air,0.072289,0.2375,0.072698,0.119565,0.079365,0.255979,2,idle,0.000489,0,0.001122,0.000243,0.001243,success,0,temporal_sharing,0.076984,baixo
0.710018,0.70614,0.316239,0.43923,0.632813,0.709544,0.744505,0.700207,hybrid,0.686747,0.925,0.739903,0.532609,0.857143,0.732385,16,training,0.499756,0.651007,0.370903,0.595063,0.143938,success,0.205217,full_gpu,0.937125,moderado
0.930931,0.929825,0.166667,0.38452,0.515625,0.487552,0.491758,0.446149,hybrid,0.180723,0.5375,0.366721,0.043478,0.539683,0.435036,4,inference,0.249634,0,0.062634,0.020918,0.024972,success,0.064348,mig,0.383774,moderado
0.768629,0.85614,0.463675,0.935018,0.570313,0.66805,0.711538,0.591817,air,0.253012,0.3625,0.588045,0.23913,0.730159,0.394312,8,idle,0.001466,0,0.000561,0.000193,0.024539,failed,0.443478,mig,0.656085,alto
0.150967,0.150877,0.211538,0.322503,0.328125,0.578838,0.678571,0.422199,hybrid,0.433735,0.5,0.484653,0.434783,0.587302,0.449257,1,inference,0.249634,0,0.07264,0.043054,0.00373,success,0.011304,temporal_sharing,0.186684,moderado
0.637083,0.640351,0.196581,0.310469,0.609375,0.709544,0.752747,0.53772,air,0.39759,0.5375,0.725363,0.358696,0.793651,0.504202,8,inference,0.030777,0,0.010227,0.007129,0.02562,success,0.282609,mig,0.814815,alto
0.359402,0.362281,0.207265,0.334537,0.453125,0.574689,0.629121,0.486944,hybrid,0.313253,0.4875,0.47496,0.48913,0.634921,0.420168,4,inference,0.062042,0,0.033841,0.023499,0.021837,running,0.243478,temporal_sharing,0.514991,alto
0.90993,0.903509,0.198718,0.251504,0.476563,0.580913,0.629121,0.614832,immersion,0.879518,0.85,0.84168,0.902174,0.904762,0.854557,16,training,0.499756,0.704698,0.47759,0.549913,0.521107,success,0.197391,full_gpu,1,baixo
0.077592,0.072807,0.213675,0.309266,0.414063,0.618257,0.700549,0.322022,air,0.26506,0.25,0.261712,0.108696,0.253968,0.2883,1,idle,0.007328,0,0.005564,0.000942,0.034485,success,0.006957,temporal_sharing,0.13642,moderado
0.878735,0.880702,0.495726,0.76775,0.882813,0.993776,0.958791,0.84312,air,0.554217,0.675,0.927302,0.456522,0.952381,0.646412,16,training,0.499756,0.765101,0.664015,0.726376,0.713151,running,0.875652,mig,1,alto
0.244464,0.242982,0.179487,0.234657,0.460938,0.558091,0.557692,0.415068,liquid,0.433735,0.475,0.371567,0.402174,0.603175,0.402069,4,inference,0.062042,0,0.070146,0.027849,0.00373,running,0.046087,mig,0.344268,moderado
0.658172,0.660526,0.346154,0.527076,0.6875,0.751037,0.78022,0.626242,air,0.457831,0.5875,0.733441,0.391304,0.825397,0.510666,8,inference,0.062042,0,0.019082,0.012245,0.029404,running,0.652174,mig,0.858907,alto
0.513181,0.503509,0.143162,0.23586,0.304688,0.533195,0.626374,0.374693,liquid,0.73494,0.775,0.617124,0.815217,0.730159,0.592114,8,fine_tuning,0.374695,0.100671,0.2191,0.100294,0.052213,success,0.101739,full_gpu,0.65582,baixo
0.296046,0.299123,0.143162,0.281588,0.257813,0.3361,0.381868,0.439559,air,0.53012,0.5125,0.465267,0.434783,0.587302,0.402069,4,inference,0.249634,0,0.067666,0.031721,0.026539,success,0.049565,temporal_sharing,0.4,moderado
0.107381,0.121053,0.209858,0.38452,0.203125,0.311203,0.368132,0.224206,liquid,0.590361,0.6125,0.339257,0.858696,0.47619,0.63607,1,inference,0.030777,0,0.015658,0.012349,0.009945,success,0,mig,0.151764,baixo
0.504657,0.503509,0.232906,0.45728,0.617188,0.684647,0.708791,0.55272,hybrid,0.746988,0.75,0.65105,0.75,0.825397,0.688429,8,fine_tuning,0.374695,0.09396,0.201656,0.169577,0.092265,success,0.086087,full_gpu,0.623898,moderado
0.895782,0.891228,0.33547,0.593261,0.601562,0.543568,0.535714,0.673748,liquid,0.879518,0.9375,0.927302,0.73913,0.679474,0.8468,16,training,0.499756,0.342282,0.615402,0.5251,0.268364,success,0.211304,full_gpu,1,moderado
0.346661,0.346491,0.070513,0.316486,0.507813,0.649378,0.708791,0.438133,liquid,0.614458,0.775,0.584814,0.663043,0.746032,0.779573,4,fine_tuning,0.249634,0.067114,0.106229,0.108977,0.039079,success,0.052174,full_gpu,0.471693,moderado
0.247012,0.251754,0.211538,0.519856,0.515625,0.591286,0.629121,0.448903,air,0.409639,0.5875,0.360258,0.554348,0.555556,0.455721,4,inference,0.249634,0,0.047226,0.016279,0.027782,success,0.089565,temporal_sharing,0.345679,moderado
0.973638,0.980702,0.67735,0.924188,1,0.979253,0.972527,0.980329,air,0.590361,0.6625,0.96769,0.5,0.984127,0.652877,16,fine_tuning,0.249634,0.328859,0.619741,0.491061,0.540187,aborted,0.27913,full_gpu,1,alto
0.877944,0.315789,0.098291,0.43201,0.390625,0.609959,0.697802,0.44733,hybrid,0.60241,0.8125,0.098546,0.141304,0.746032,0.639948,4,fine_tuning,0.187103,0.09396,0.088328,0.045902,0.064969,success,0.296522,full_gpu,0.410053,moderado
0.599736,0.605263,0.25641,0.44284,0.648438,0.751037,0.793956,0.586899,liquid,0.421687,0.575,0.693053,0.369565,0.793651,0.536522,8,fine_tuning,0.124573,0.181208,0.13272,0.11251,0.345603,success,0.556522,mig,0.78836,alto
0.894552,0.887719,0.527778,0.839952,0.921875,0.958506,0.972527,0.936068,air,0.60241,0.7125,0.943457,0.48913,0.679474,0.659341,16,training,0.374695,0.798658,0.737806,0.777531,0.799632,aborted,0.956522,mig,1,alto
0.062566,0.062281,0.002137,0.167268,0.054687,0.109959,0.153846,0.054441,air,0.120482,0.1125,0.07916,0.054348,0.063492,0.199741,1,idle,0.000489,0,0.000015,0.000643,0.003838,success,0,mig,0.081305,baixo
0.310105,0.30614,0.192308,0.252708,0.484375,0.460581,0.467033,0.512,hybrid,0.433735,0.6,0.28433,0.565217,0.52381,0.514544,4,inference,0.249634,0,0.050296,0.039173,0.022161,success,0.062609,mig,0.363845,baixo
0.699209,0.697368,0.224359,0.208183,0.539063,0.748963,0.82967,0.719485,hybrid,0.710843,0.85,0.807754,0.673913,0.904762,0.714286,16,training,0.749878,0.85906,0.327779,0.414113,0.540295,success,0.173043,full_gpu,0.929101,moderado
0.847188,0.839474,0.346154,0.38452,0.46875,0.719917,0.815934,0.749828,liquid,0.698795,0.525,0.735057,0.543478,0.825397,0.7298,16,training,0.374695,0.409396,0.597707,0.601151,0.480028,aborted,0.166087,full_gpu,1,moderado
0.330931,0.329825,0.183761,0.423586,0.515625,0.435685,0.423077,0.211321,hybrid,0.481928,0.6,0.575121,0.673913,0.730159,0.513251,4,inference,0.062042,0,0.026653,0.051053,0.00681,success,0.036522,mig,0.405026,baixo
0.808963,0.77807,0.228632,0.34657,0.53125,0.626556,0.67033,0.503295,liquid,0.024096,0.3875,0.563813,0.163043,0.714286,0.400776,8,idle,0.00342,0,0.000561,0.000172,0.02508,running,0.155652,temporal_sharing,0.611993,alto
0.655536,0.649123,0.346154,0.563177,0.6875,0.751037,0.78022,0.486944,hybrid,0,0.5875,0.733441,0.130435,0.825397,0.510666,8,fine_tuning,0.124573,0.14094,0.106156,0.091024,0.269931,failed,0.643478,temporal_sharing,0.84127,alto
0.550967,0.555263,0.299145,0.341757,0.671875,0.697095,0.714286,0.545048,air,0.638554,0.9,0.65105,0.608696,0.793651,0.738849,8,fine_tuning,0.374695,0.100671,0.09612,0.060668,0.898492,failed,0.111304,full_gpu,0.882187,moderado
0.036643,0.04386,0.344017,0.666667,0.609375,0.651452,0.675824,0.272204,air,0.325301,0.275,0.122779,0.130435,0.269841,0.23788,1,idle,0,0,0.004177,0.001011,0.03189,success,0.005217,none,0.055467,moderado
0.766344,0.771053,0.303419,0.530686,0.554688,0.76556,0.846154,0.755828,liquid,0.722892,0.9125,0.749596,0.815217,0.84127,0.790562,16,training,0.499756,0.38255,0.191178,0.321775,0.547916,running,0.154783,full_gpu,1,moderado
0.015202,0.014035,0.059829,0.116727,0.25,0.114108,0.090659,0.019671,hybrid,0.13253,0.1625,0.03231,0.119565,0.031746,0.319328,1,idle,0.007328,0,0.000723,0.000029,0.000486,success,0,none,0.032716,baixo
0.92768,0.905263,0.151709,0.143201,0.429688,0.578838,0.642857,0.51677,hybrid,0.060241,0.5625,0.57189,0.184783,0.698413,0.684551,4,fine_tuning,0.249634,0.208054,0.019348,0.041393,0.060645,success,0.064348,temporal_sharing,0.392504,moderado
0.375483,0.37193,0.138889,0.463297,0.484375,0.524896,0.552198,0.401643,hybrid,0.759036,0.8875,0.678514,0.869565,0.679474,0.758888,8,inference,0.062042,0,0.060686,0.049982,0.023782,success,0.104348,temporal_sharing,0.489153,baixo
0.370299,0.370175,0.123932,0.32491,0.4375,0.551867,0.596154,0.511606,liquid,0.891566,0.875,0.505654,0.869565,0.666667,0.82159,4,fine_tuning,0.187103,0.147651,0.113697,0.092528,0.139938,success,0.04087,temporal_sharing,0.449647,baixo
0.467487,0.464035,0.192308,0.310469,0.53125,0.626556,0.67033,0.493459,hybrid,0.313253,0.45,0.563813,0.271739,0.714286,0.413704,8,idle,0.00342,0,0.001077,0.000367,0.027242,failed,0.443478,temporal_sharing,0.62963,alto
0.226977,0.223684,0.17094,0.292419,0.4375,0.541494,0.598901,0.394069,air,0.46988,0.5875,0.263328,0.76087,0.47619,0.599871,2,inference,0.062042,0,0.05155,0.030887,0.028755,running,0.058261,mig,0.261464,moderado
0.187434,0.189474,0.252137,0.20698,0.351563,0.377593,0.403846,0.357677,air,0.385542,0.625,0.491115,0.48913,0.555556,0.475113,4,inference,0.249634,0,0.085863,0.03629,0.026972,success,0.068696,temporal_sharing,0.230335,moderado
0.04174,0.042105,0.076923,0.187726,0.046875,0.004149,0.016484,0.033638,air,0.13253,0.1125,0.043619,0,0.031746,0,4,idle,0.007328,0,0.000546,0.000209,0.00173,success,0,none,0.068607,baixo
0.479174,0.477193,0.264957,0.290012,0.476563,0.607884,0.664835,0.582079,hybrid,0.650602,0.775,0.657512,0.793478,0.793651,0.666451,4,fine_tuning,0.062042,0.228188,0.128529,0.113356,0.098535,running,0.092174,full_gpu,0.637125,moderado
0.492091,0.486842,0.113248,0.528279,0.382813,0.516598,0.576923,0.503983,liquid,0.795181,0.85,0.746365,0.771739,0.777778,0.689722,8,fine_tuning,0.249634,0.080537,0.122936,0.087967,0.055781,running,0.092174,temporal_sharing,0.611199,baixo
0.14051,0.136842,0.119658,0.22864,0.367187,0.340249,0.348901,0.486944,hybrid,0.457831,0.5625,0.295638,0.673913,0.52381,0.608274,1,inference,0.030777,0,0.075769,0.008123,0.018972,success,0.006957,mig,0.175926,moderado
0.297012,0.300877,0.431624,0.707581,0.492188,0.564315,0.601648,0.395102,hybrid,0.289157,0.4,0.450727,0.25,0.587302,0.355527,4,inference,0.030777,0,0.017607,0.009176,0.019675,running,0.2,full_gpu,0.435626,alto
0.753954,0.757895,0.25,0.358604,0.765625,0.834025,0.862637,0.591817,liquid,0.518072,0.625,0.814216,0.434783,0.857143,0.568843,16,inference,0.030777,0,0.026461,0.015314,0.032106,success,0.198261,full_gpu,0.964727,alto
0.022583,0.022807,0.115385,0.409146,0.109375,0.068465,0.07967,0.096685,hybrid,0.277108,0.2625,0.164782,0.23913,0.285714,0.188106,1,idle,0,0,0.000989,0.000532,0.000432,success,0,none,0.045767,baixo
0.903691,0.892982,0.104701,0.513839,0.375,0.520747,0.645604,0.474624,hybrid,0.915663,0.825,0.849758,0.98913,0.873016,0.83775,16,training,0.499756,0.919463,0.199841,0.276695,0.683693,success,0.216522,full_gpu,1,baixo
0.219596,0.219298,0.188034,0.340554,0.4375,0.414938,0.423077,0.363283,hybrid,0.650602,0.5875,0.429725,0.565217,0.603175,0.689076,4,inference,0.062042,0,0.059579,0.033089,0.018972,success,0.06,temporal_sharing,0.308995,baixo
0.011863,0.012281,0.047009,0.12515,0.257813,0.176349,0.17033,0.136914,air,0.048193,0.275,0.043619,0,0.047619,0.084034,1,idle,0,0,0.000044,0.000803,0.001081,success,0,mig,0.023986,baixo
0.281547,0.285965,0.136752,0.505415,0.4375,0.53527,0.582418,0.507131,hybrid,0.542169,0.7125,0.436187,0.663043,0.650794,0.627666,4,inference,0.249634,0,0.049735,0.018587,0.012702,success,0.068696,full_gpu,0.39321,baixo
0.195606,0.189474,0.15812,0.513839,0.273438,0.43361,0.505495,0.298171,hybrid,0.46988,0.7375,0.434572,0.521739,0.603175,0.444085,4,inference,0.124573,0,0.035582,0.024493,0.006973,success,0.032174,temporal_sharing,0.24127,moderado
0.609842,0.611404,0.356838,0.575211,0.609375,0.709544,0.752747,0.636078,liquid,0.445783,0.575,0.709208,0.391304,0.679474,0.504202,8,fine_tuning,0.124573,0.161074,0.112059,0.098186,0.296957,failed,0.608696,full_gpu,0.78836,alto
0.093058,0.091228,0.038462,0.326113,0.265625,0.327801,0.368132,0.195928,air,0.385542,0.575,0.252019,0.423913,0.460317,0.289593,1,inference,0.062042,0,0.040703,0.010204,0.01481,success,0.013043,mig,0.13254,moderado
0.405712,0.397368,0.245726,0.530686,0.375,0.427386,0.461538,0.436412,hybrid,0.807229,0.7,0.379645,0.76087,0.650794,0.700711,4,fine_tuning,0.374695,0.154362,0.092534,0.039249,0.061726,success,0.072174,full_gpu,0.484744,moderado
0.386819,0.384211,0.277778,0.269555,0.40625,0.558091,0.623626,0.483083,liquid,0.674699,0.65,0.416801,0.771739,0.650794,0.612153,8,inference,0.007328,0,0.062619,0.013787,0.003135,success,0.086957,temporal_sharing,0.489153,moderado
0.395606,0.398246,0.17735,0.269555,0.398438,0.414938,0.436813,0.387627,hybrid,0.626506,0.6125,0.483037,0.543478,0.650794,0.597931,8,inference,0.062042,0,0.034962,0.009883,0.018269,success,0.107826,mig,0.446737,baixo
0.270387,0.267544,0.100427,0.403129,0.453125,0.603734,0.667582,0.386791,hybrid,0.674699,0.7375,0.350565,0.652174,0.571429,0.535229,4,inference,0.124573,0,0.035523,0.045897,0.005783,success,0.070435,full_gpu,0.343827,moderado
0.221793,0.214035,0.267094,0.512635,0.320313,0.599585,0.708791,0.470149,hybrid,0.433735,0.7375,0.358643,0.597826,0.555556,0.530705,4,inference,0.124573,0,0.032999,0.04327,0.028971,success,0.044348,temporal_sharing,0.307143,moderado
0.738137,0.680702,0.260684,0.38452,0.726563,0.813278,0.848901,0.621324,hybrid,0.518072,0.625,0.806139,0.423913,0.857143,0.549451,16,training,0.249634,0.630872,0.486917,0.531985,0.626669,running,0.269565,temporal_sharing,0.929453,alto
0.254394,0.25,0.081197,0.131167,0.4375,0.485477,0.516484,0.383299,hybrid,0.445783,0.7,0.279483,0.586957,0.507937,0.507434,4,inference,0.007328,0,0.031081,0.014154,0.001513,success,0.393913,temporal_sharing,0.344974,moderado
0.70993,0.70614,0.194444,0.219013,0.5,0.684647,0.758242,0.606423,liquid,0.903614,0.9,0.927302,0.902174,0.825397,0.947641,16,training,0.249634,0.724832,0.219602,0.405549,0.570618,success,0.215652,full_gpu,0.932363,baixo
0.219332,0.218421,0.070513,0.146811,0.320313,0.446058,0.505495,0.353939,hybrid,0.626506,0.85,0.621971,0.728261,0.714286,0.802198,4,fine_tuning,0.374695,0.060403,0.132071,0.058482,0.049078,running,0.052174,mig,0.255644,moderado
0.47109,0.469298,0.111111,0.38452,0.4375,0.582988,0.645604,0.415413,hybrid,0.73494,0.775,0.646204,0.728261,0.793651,0.795087,8,fine_tuning,0.124573,0.100671,0.079783,0.10921,0.10194,success,0.116522,full_gpu,0.570635,baixo
0.321793,0.315789,0.254274,0.312876,0.570313,0.676349,0.722527,0.62516,air,0.590361,0.8,0.73021,0.619565,0.84127,0.617324,4,fine_tuning,0.249634,0.174497,0.071326,0.078798,0.125561,success,0.054783,full_gpu,0.559524,moderado
0.388401,0.391228,0.239316,0.382671,0.492188,0.585062,0.629121,0.449198,hybrid,0.373494,0.475,0.491115,0.336957,0.634921,0.426632,4,inference,0.124573,0,0.036792,0.028615,0.023999,running,0.252174,mig,0.541446,alto
0.614587,0.616667,0.113248,0.345367,0.570313,0.6639,0.706044,0.096538,liquid,0.807229,0.75,0.757674,0.717391,0.920635,0.703297,8,training,0.124573,0.624161,0.478062,0.873896,0.630615,running,0.09913,full_gpu,0.802998,moderado
0.613357,0.617544,0.217949,0.334537,0.648438,0.719917,0.752747,0.71619,hybrid,0.421687,0.55,0.701131,0.369565,0.679474,0.491273,8,inference,0.030777,0,0.013179,0.008664,0.026161,success,0.617391,mig,0.805996,alto
0.481547,0.680702,0.681624,0.647413,0.570313,0.657676,0.697802,0.567227,air,0.228916,0.3375,0.579968,0.217391,0.714286,0.387847,8,idle,0.00342,0,0.00093,0.000316,0.024539,aborted,0.443478,full_gpu,0.656085,alto
0.254042,0.250877,0.014957,0.256318,0.148438,0.288382,0.357143,0.391118,hybrid,0.566265,0.8,0.319871,0.891304,0.52381,0.769231,4,fine_tuning,0.249634,0.040268,0.021562,0.051894,0.050105,success,0.026087,full_gpu,0.305467,baixo
0.300879,0.300877,0.106838,0.353791,0.4375,0.680498,0.774725,0.511606,liquid,0.542169,0.825,0.295638,0.771739,0.555556,0.680672,4,inference,0.124573,0,0.087088,0.021581,0.007297,success,0.054783,temporal_sharing,0.382628,baixo
0.109227,0.114035,0.143162,0.601685,0.46875,0.53112,0.565934,0.312678,air,0.26506,0.15,0.266559,0.26087,0.365079,0.345184,4,idle,0.001466,0,0.002922,0.000555,0.024107,success,0.032174,mig,0.126631,moderado
0.223989,0.214912,0.132479,0.21059,0.390625,0.448133,0.483516,0.471821,hybrid,0.506024,0.475,0.547658,0.48913,0.666667,0.451196,4,inference,0.030777,0,0.076934,0.017984,0.014918,success,0.246957,temporal_sharing,0.373104,moderado
0.739895,0.742105,0.388889,0.611312,0.726563,0.813278,0.848901,0.714763,air,0.481928,0.6125,0.806139,0.413043,0.857143,0.568843,16,fine_tuning,0.187103,0.194631,0.147479,0.132972,0.367223,success,0.747826,temporal_sharing,0.938272,alto
0.465378,0.465789,0.209858,0.447653,0.453125,0.543568,0.587912,0.489918,hybrid,0.783133,0.8375,0.484653,0.771739,0.730159,0.861021,8,fine_tuning,0.124573,0.181208,0.15564,0.178141,0.158802,success,0.085217,temporal_sharing,0.551852,baixo
0.396573,0.401754,0.141026,0.286402,0.460938,0.553942,0.598901,0.551048,immersion,0.831325,0.9,0.547658,0.73913,0.714286,0.595992,8,fine_tuning,0.124573,0.04698,0.104488,0.161527,0.047024,success,0.089565,full_gpu,0.514109,baixo
0.807118,0.829825,0.066239,0.997593,0.195313,0.178423,0.195055,0.247516,air,0.662651,0.3625,0.177706,0.858696,0.444444,0.674208,1,inference,0.007328,0,0.023185,0.016548,0.010108,running,0,temporal_sharing,0.129365,baixo
0.130404,0.131579,0.044872,0.181709,0.195313,0.195021,0.217033,0.131651,hybrid,0.578313,0.625,0.095315,0.826087,0.349206,0.453782,1,inference,0.062042,0,0.025679,0.007635,0.443922,aborted,0,temporal_sharing,0.191623,baixo
0.067487,0.077193,0,0.068592,0.007813,0.076763,0.126374,0.137651,air,0.108434,0.2125,0.06462,0,0.031746,0.122818,4,idle,0.007328,0,0.000458,0.000884,0.002973,success,0,temporal_sharing,0.096649,baixo
0.392707,0.391228,0.134615,0.517449,0.328125,0.558091,0.651099,0.47664,liquid,0.710843,0.7125,0.6979,0.902174,0.793651,0.733678,4,fine_tuning,0.249634,0.134228,0.152806,0.047799,0.092319,success,0.058261,full_gpu,0.445238,baixo
0.778559,0.782456,0.410256,0.38452,0.765625,0.844398,0.876374,0.734435,liquid,0.506024,0.6125,0.830372,0.423913,0.873016,0.581771,16,fine_tuning,0.187103,0.208054,0.162237,0.148319,0.410464,aborted,0.773913,full_gpu,0.982363,alto
0.12232,0.124561,0.209858,0.018051,0.296875,0.109959,0.068681,0.278745,air,0.698795,0.65,0.274637,0.836957,0.492063,0.591467,2,inference,0.030777,0,0.018108,0.002537,0.00027,success,0.012174,mig,0.16067,baixo
0.481986,0.473684,0.096154,0.340554,0.226563,0.46888,0.568681,0.311941,liquid,0.73494,0.9375,0.852989,0.826087,0.857143,0.861021,8,training,0.374695,0.328859,0.420859,0.790077,0.3589,success,0.116522,full_gpu,0.577866,baixo
0.63348,0.636842,0.311966,0.427196,0.617188,0.742739,0.793956,0.655503,hybrid,0.759036,0.975,0.71567,0.804348,0.873016,0.918552,8,training,0.124573,0.463087,0.76564,0.780608,0.459327,success,0.123478,full_gpu,0.900882,moderado
0.262302,0.260526,0.16453,0.209386,0.21875,0.487552,0.57967,0.463608,hybrid,0.542169,0.6625,0.281099,0.771739,0.555556,0.672269,4,inference,0.249634,0,0.046488,0.046145,0.015188,success,0.073913,temporal_sharing,0.328219,baixo
0.170123,0.168421,0.042735,0.185319,0.117188,0.219917,0.277473,0.271024,air,0.638554,0.3625,0.366721,0.836957,0.539683,0.581125,4,inference,0.124573,0,0.024041,0.009782,0.012864,success,0.024348,temporal_sharing,0.209259,baixo
0.925308,0.923684,0.149573,0.412756,0.554688,0.628631,0.714286,0.689535,hybrid,0.951807,1,0.814216,0.967391,0.904762,0.913381,16,training,0.249634,0.771812,0.700955,0.661082,0.324739,success,0.202609,full_gpu,1,baixo
0.458875,0.461404,0.209858,0.23586,0.4375,0.475104,0.502747,0.415708,liquid,0.710843,0.8125,0.626817,0.793478,0.777778,0.838397,8,training,0.374695,0.295302,0.096533,0.202067,0.39787,success,0.112174,full_gpu,0.52716,baixo
0.218981,0.214035,0.200855,0.38452,0.296875,0.545643,0.645604,0.456378,hybrid,0.445783,0.575,0.378029,0.434783,0.571429,0.446671,4,inference,0.124573,0,0.045411,0.014838,0.018485,success,0.066087,mig,0.29418,moderado
0.438225,0.442105,0.297009,0.509025,0.320313,0.526971,0.612637,0.478755,hybrid,0.831325,0.8625,0.547658,0.641304,0.761905,0.70459,4,fine_tuning,0.062042,0.114094,0.192166,0.114781,0.120102,success,0.062609,mig,0.547354,moderado
0.087786,0.088596,0.094017,0.38452,0.195313,0.093361,0.082418,0.105046,air,0.204819,0.675,0.163166,0.597826,0.380952,0.477699,2,inference,0.030777,0,0.022624,0.005209,0.000541,success,0.007826,temporal_sharing,0.114109,baixo
0.226538,0.221053,0.311966,0.387485,0.65625,0.763485,0.758242,0.540523,hybrid,0.433735,0.65,0.318255,0.282609,0.507937,0.350356,4,inference,0.062042,0,0.08787,0.046703,0.016161,success,0.076522,full_gpu,0.360494,moderado
0.40167,0.399123,0.151709,0.151625,0.257813,0.516598,0.692308,0.42333,hybrid,0.626506,0.8625,0.644588,0.641304,0.761905,0.663219,8,fine_tuning,0.249634,0.060403,0.144114,0.024184,0.138371,success,0.114783,full_gpu,0.547178,moderado
0.443761,0.446491,0.185897,0.298436,0.53125,0.616183,0.656593,0.498377,liquid,0.301205,0.4125,0.555735,0.26087,0.698413,0.387847,8,idle,0.001466,0,0.001151,0.000387,0.027782,success,0.426087,temporal_sharing,0.611993,alto
0.242619,0.245614,0.168803,0.389892,0.507813,0.580913,0.618132,0.486944,air,0.433735,0.75,0.34895,0.565217,0.571429,0.632838,4,inference,0.062042,0,0.079635,0.033815,0.022377,success,0.051304,mig,0.309347,baixo
0.693761,0.687719,0.179487,0.38452,0.554688,0.653527,0.697802,0.535802,liquid,0.795181,0.7125,0.898223,0.684783,0.904762,0.756949,16,training,0.749878,0.503356,0.478032,0.775492,0.180315,success,0.212174,full_gpu,0.950265,moderado
0.35413,0.347368,0.220085,0.475331,0.226563,0.568465,0.700549,0.523655,liquid,0.759036,0.775,0.531502,0.782609,0.714286,0.679379,4,fine_tuning,0.249634,0.208054,0.142977,0.077615,0.095725,success,0.055652,temporal_sharing,0.461552,moderado
0.032074,0.031579,0.008547,0.200963,0.101563,0.082988,0.101648,0.11675,air,0.13253,0.075,0.016155,0.01087,0,0.046542,2,idle,0.007328,0,0.001269,0.000043,0.002649,success,0,none,0.037831,baixo
0.768014,0.766667,0.17735,0.466907,0.289062,0.481328,0.563187,0.536196,liquid,0.795181,0.9875,0.857835,0.782609,0.679474,0.843568,16,training,0.499756,0.362416,0.656267,0.783898,0.386466,success,0.216522,full_gpu,0.966138,moderado
0.355536,0.351754,0.106838,0.298436,0.492188,0.595436,0.642857,0.483033,hybrid,0.807229,0.8625,0.478191,0.771739,0.68254,0.810601,4,fine_tuning,0.249634,0.087248,0.135997,0.130096,0.064483,success,0.037391,temporal_sharing,0.404497,baixo
0.68717,0.681579,0.495726,0.791817,0.765625,0.823651,0.848901,0.773778,air,0.506024,0.625,0.749596,0.423913,0.857143,0.549451,8,fine_tuning,0.249634,0.234899,0.206511,0.184127,0.627263,aborted,0.686957,full_gpu,0.89418,alto
0.046397,0.046491,0.021368,0.188929,0.054687,0.087137,0.123626,0.052228,air,0.180723,0.1,0.009693,0.141304,0.063492,0.034906,2,idle,0,0,0.001254,0.000842,0.00173,running,0,temporal_sharing,0.06843,baixo
0.931459,0.935965,0.517094,0.827918,0.921875,0.958506,0.972527,0.93115,air,0.590361,0.7,0.951535,0.478261,0.968254,0.659341,16,training,0.499756,0.798658,0.70829,0.757069,0.756392,success,0.965217,mig,1,alto
0.16942,0.168421,0.173077,0.233454,0.375,0.475104,0.524725,0.374102,liquid,0.650602,0.55,0.300485,0.630435,0.539683,0.564318,4,inference,0.030777,0,0.068832,0.05105,0.005297,success,0.070435,temporal_sharing,0.225573,moderado
0.141388,0.145614,0.102564,0.33935,0.382813,0.574689,0.653846,0.484607,liquid,0.39759,0.6625,0.345719,0.478261,0.492063,0.442146,2,inference,0.015144,0,0.066677,0.049717,0.01908,success,0.013913,mig,0.198677,moderado
0.406327,0.410526,0.143162,0.069795,0.429688,0.589212,0.656593,0.9611,liquid,0.084337,0.7125,0.754443,0.054348,0.730159,0.887524,8,training,0.749878,0.402685,0.405289,0.556147,0.351927,success,0.070435,full_gpu,0.540388,baixo
0.800967,0.796491,0.405983,0.525872,0.5625,0.709544,0.769231,0.746287,hybrid,0.686747,0.825,0.812601,0.597826,0.857143,0.708468,16,training,0.499756,0.483221,0.372452,0.385526,0.199232,failed,0.233913,full_gpu,1,moderado
0.611951,0.607018,0.378205,0.638989,0.453125,0.740664,0.848901,0.624963,hybrid,0.506024,0.7125,0.699515,0.413043,0.777778,0.632838,8,fine_tuning,0.249634,0.040268,0.107071,0.096734,0.145343,success,0.151304,full_gpu,0.841005,moderado
0.56775,0.568421,0.17094,0.222623,0.507813,0.582988,0.620879,0.484017,hybrid,0.891566,0.9625,0.854604,0.98913,0.857143,0.878474,8,training,0.749878,0.563758,0.810151,0.290853,0.899789,failed,0.086957,full_gpu,0.668695,baixo
0.215554,0.210526,0.179487,0.480144,0.257813,0.36722,0.423077,0.486944,hybrid,0.46988,0.6125,0.462036,0.554348,0.603175,0.475113,2,inference,0.124573,0,0.087605,0.046683,0.022485,success,0.036522,temporal_sharing,0.291358,moderado
0.129789,0.132456,0.123932,0.391095,0.40625,0.551867,0.615385,0.486944,air,0.421687,0.5875,0.273021,0.586957,0.460317,0.478345,2,inference,0.124573,0,0.03328,0.032156,0.018702,success,0.028696,temporal_sharing,0.19418,moderado
0.422935,0.417544,0.061966,0.299639,0.429688,0.5,0.538462,0.383742,hybrid,0.903614,0.875,0.523425,0.793478,0.761905,0.670976,8,training,1,0.456376,0.611535,0.255665,0.196638,success,0.085217,full_gpu,0.57381,baixo
0.984183,0.985965,0.209858,0.353791,0.632813,0.549793,0.53022,0.774761,liquid,0.710843,0.6625,0.728595,0.576087,0.857143,0.738203,16,training,0.374695,0.442953,0.245532,0.850041,0.168585,success,0.20087,full_gpu,1,moderado
0.191916,0.185088,0.190171,0.255114,0.492188,0.539419,0.568681,0.416396,hybrid,0.46988,0.6375,0.352181,0.391304,0.679474,0.437621,2,inference,0.015144,0,0.05372,0.029223,0.00854,running,0.018261,full_gpu,0.34224,moderado
0.764499,0.768421,0.25,0.370638,0.765625,0.834025,0.862637,0.596735,liquid,0.53012,0.6375,0.822294,0.402174,0.873016,0.568843,16,inference,0.030777,0,0.026461,0.015314,0.033187,success,0.18087,mig,0.964727,alto
0.399297,0.396491,0.07265,0.062575,0.375,0.473029,0.521978,0.516573,hybrid,0.843373,0.925,0.628433,0.804348,0.825397,0.925016,8,training,0.374695,0.342282,0.267876,0.24409,0.168045,success,0.086087,full_gpu,0.521517,baixo
0.308348,0.30614,0.224359,0.476534,0.382813,0.599585,0.686813,0.456624,hybrid,0.710843,0.7625,0.444265,0.663043,0.666667,0.556561,4,fine_tuning,0.374695,0.067114,0.151936,0.062161,0.057889,success,0.063478,mig,0.429982,moderado
0.859139,0.862281,0.205128,0.440433,0.492188,0.622407,0.678571,0.486944,liquid,1,0.9,0.830372,0.934783,0.873016,0.760827,16,training,1,0.389262,0.696823,0.574853,0.57759,success,0.163478,full_gpu,1,baixo
0.505536,0.498246,0.064103,0.344164,0.390625,0.437759,0.46978,0.336825,liquid,0.795181,0.8375,0.600969,0.978261,0.730159,0.795087,8,training,0.499756,0.228188,0.206659,0.31943,0.491379,success,0.064348,full_gpu,0.648677,baixo
0.687083,0.685965,0.288462,0.523466,0.578125,0.605809,0.618132,0.671978,hybrid,0.759036,0.975,0.948304,0.728261,0.84127,0.800905,16,training,0.499756,0.510067,0.200667,0.641633,0.414788,aborted,0.170435,full_gpu,0.947266,moderado
0.25536,0.229825,0.181624,0.361011,0.382813,0.358921,0.368132,0.317399,air,0.662651,0.75,0.462036,0.695652,0.619048,0.711054,4,inference,0.124573,0,0.062398,0.020959,0.010054,success,0.053043,mig,0.328483,baixo
0.702197,0.697368,0.123932,0.290012,0.507813,0.649378,0.708791,0.618668,liquid,0.939759,1,0.851373,1,0.84127,0.942469,8,training,0.749878,0.315436,0.273041,0.753331,0.682504,success,0.137391,full_gpu,0.911552,baixo
0.442355,0.442982,0.25,0.462094,0.398438,0.516598,0.571429,0.47187,liquid,0.662651,0.6875,0.542811,0.706522,0.761905,0.707175,4,fine_tuning,0.062042,0.040268,0.154607,0.13648,0.045187,success,0.087826,full_gpu,0.573986,moderado
0.813445,0.816667,0.151709,0.466907,0.414063,0.574689,0.642857,0.594177,immersion,0.879518,0.9,0.885299,0.98913,0.84127,0.882353,16,training,0.749878,0.610738,0.437905,0.235552,0.490298,success,0.16087,full_gpu,0.925044,baixo
0.666344,0.660526,0.07265,0.22142,0.21875,0.493776,0.604396,0.490017,liquid,0.819277,0.8875,0.799677,0.934783,0.825397,0.879767,16,training,0.249634,0.342282,0.472055,0.475798,0.32809,success,0.109565,full_gpu,0.854409,baixo
0.321968,0.321053,0.126068,0.250301,0.21875,0.344398,0.406593,0.21737,hybrid,0.457831,0.8875,0.625202,0.858696,0.746032,0.666451,4,fine_tuning,0.062042,0.087248,0.065807,0.033495,0.067348,success,0.061739,temporal_sharing,0.425485,baixo
0.658612,0.65,0.179487,0.401925,0.492188,0.607884,0.659341,0.656388,immersion,0.795181,0.775,0.857835,0.913043,0.84127,0.795734,16,training,0.749878,0.288591,0.481545,0.474814,0.225177,success,0.19913,full_gpu,0.844533,baixo
0.312654,0.313158,0.196581,0.468111,0.445312,0.406639,0.409341,0.320153,air,0.542169,0.65,0.360258,0.695652,0.679474,0.7117,4,inference,0.249634,0,0.033294,0.032407,0.021729,success,0.067826,temporal_sharing,0.41552,baixo
0.497452,0.492105,0.149573,0.253911,0.28125,0.522822,0.620879,0.4102,liquid,0.819277,0.8125,0.589661,0.913043,0.746032,0.816419,8,training,0.749878,0.409396,0.376275,0.509089,0.099508,running,0.1,full_gpu,0.645414,baixo
0.187786,0.189474,0.151709,0.397112,0.21875,0.40249,0.483516,0.4371,hybrid,0.39759,0.5125,0.384491,0.532609,0.539683,0.46671,4,inference,0.249634,0,0.070736,0.040329,0.016053,success,0.067826,temporal_sharing,0.275397,moderado
0.224165,0.22807,0.089744,0.300842,0.304688,0.304979,0.324176,0.334956,air,0.457831,0.675,0.41357,0.673913,0.539683,0.624434,2,inference,0.124573,0,0.017961,0.020831,0.02908,success,0.01913,mig,0.277249,moderado
0.888928,0.884211,0.352564,0.563177,0.570313,0.659751,0.700549,0.682158,liquid,0.674699,0.9125,0.764136,0.75,0.809524,0.714932,16,training,0.374695,0.832215,0.907643,0.566378,0.350035,success,0.222609,full_gpu,1,moderado
0.596397,0.598246,0.15812,0.393502,0.453125,0.66805,0.752747,0.554441,liquid,0.879518,0.875,0.909532,0.934783,0.904762,0.801551,16,training,0.749878,0.295302,0.434658,0.70053,0.572185,success,0.164348,full_gpu,0.711376,baixo
0.614851,0.609649,0.220085,0.38452,0.34375,0.545643,0.629121,0.647782,immersion,0.939759,0.8125,0.815832,0.652174,0.857143,0.835165,8,training,0.124573,0.671141,0.587701,0.835853,0.481163,success,0.098261,full_gpu,0.714021,moderado
0.429877,0.426316,0.209858,0.145608,0.492188,0.545643,0.576923,0.509491,liquid,0.783133,0.675,0.684976,0.826087,0.825397,0.775695,4,fine_tuning,0.062042,0.060403,0.064685,0.134669,0.13075,success,0.062609,full_gpu,0.499118,moderado
0.343058,0.337719,0.059829,0.323706,0.234375,0.475104,0.574176,0.565949,air,0.662651,0.8875,0.476575,0.663043,0.666667,0.563025,4,fine_tuning,0.249634,0.020134,0.099146,0.049728,0.103562,success,0.051304,full_gpu,0.416314,moderado
0.457293,0.457018,0.196581,0.43923,0.414063,0.460581,0.491758,0.547851,hybrid,0.53012,0.6875,0.418417,0.597826,0.634921,0.678733,8,inference,0.030777,0,0.035124,0.021364,0.013567,success,0.109565,mig,0.638007,moderado
0.720475,0.733333,0.271368,0.44284,0.726563,0.792531,0.821429,0.596735,liquid,0.493976,0.6125,0.789984,0.413043,0.84127,0.542986,16,training,0.249634,0.66443,0.501675,0.552447,0.648289,success,0.730435,full_gpu,0.929453,alto
0.025044,0.026316,0,0.126354,0.1875,0.112033,0.10989,0.05631,air,0.168675,0.1,0.042003,0.152174,0,0.2883,1,idle,0.00342,0,0.001343,0.000257,0.000865,success,0,none,0.044709,baixo
0.073374,0.07193,0.064103,0.022864,0.242188,0.226141,0.241758,0.208223,air,0.349398,0.65,0.101777,0.532609,0.412698,0.528119,2,inference,0.124573,0,0.009047,0.015998,0.007675,success,0,mig,0.086067,baixo
0.670562,0.668421,0.352564,0.486161,0.601562,0.728216,0.78022,0.69701,air,0.566265,0.8625,0.717286,0.597826,0.857143,0.764706,16,training,0.499756,0.295302,0.242521,0.895143,0.429004,success,0.232174,full_gpu,0.925573,moderado
0.456063,0.732456,0.816239,0.791817,0.609375,0.719917,0.766484,0.704928,hybrid,0.168675,0.3,0.555735,0.152174,0.68254,0.326438,4,idle,0.000489,0,0.000708,0.000234,0.024539,aborted,0.347826,full_gpu,0.603175,alto
0.334446,0.330702,0.094017,0.316486,0.359375,0.562241,0.645604,0.45087,hybrid,0.807229,0.7625,0.689822,0.641304,0.809524,0.736264,4,fine_tuning,0.374695,0.087248,0.045632,0.024504,0.02935,success,0.04087,full_gpu,0.417901,moderado
0.560281,0.55614,0.064103,0.057762,0.46875,0.443983,0.450549,0.486944,hybrid,0.638554,0.8875,0.736672,0.847826,0.825397,0.741435,8,training,0.249634,0.375839,0.315073,0.606424,0.391276,success,0.105217,full_gpu,0.743739,baixo
0.201582,0.204386,0.194444,0.463297,0.414063,0.456432,0.486264,0.374447,hybrid,0.46988,0.6375,0.285945,0.456522,0.460317,0.412411,2,inference,0.249634,0,0.037161,0.013938,0.002,success,0.018261,full_gpu,0.291975,moderado
0.173023,0.176316,0.106838,0.269555,0.46875,0.466805,0.480769,0.328661,air,0.39759,0.8,0.483037,0.695652,0.587302,0.732385,2,fine_tuning,0.187103,0.114094,0.170044,0.082213,0.058916,success,0.008696,temporal_sharing,0.254321,moderado
0.223286,0.223684,0.198718,0.246691,0.265625,0.518672,0.620879,0.481361,hybrid,0.457831,0.7625,0.533118,0.48913,0.666667,0.444732,4,inference,0.249634,0,0.070692,0.035051,0.01735,success,0.055652,full_gpu,0.29224,moderado
0.448155,0.44386,0.314103,0.38452,0.53125,0.626556,0.67033,0.53772,liquid,0.156627,0.4,0.555735,0.26087,0.698413,0.394312,8,idle,0.001466,0,0.00093,0.000275,0.02562,failed,0.426087,full_gpu,0.611993,alto
0.419332,0.422807,0.038462,0.353791,0.4375,0.614108,0.686813,0.503983,liquid,0.963855,0.8125,0.718901,0.923913,0.679474,0.853911,4,training,0.249634,0.261745,0.280465,0.427089,0.431004,success,0.053043,full_gpu,0.552469,baixo
0.234183,0.235965,0.149573,0.43923,0.53125,0.53527,0.549451,0.42338,hybrid,0.554217,0.525,0.484653,0.413043,0.603175,0.41435,2,inference,0.062042,0,0.076964,0.050164,0.024918,success,0.016522,mig,0.295591,moderado
0.406327,0.400877,0.25,0.471721,0.546875,0.520747,0.524725,0.420773,hybrid,0.831325,0.6875,0.481422,0.804348,0.746032,0.720103,4,fine_tuning,0.124573,0.114094,0.05949,0.027151,0.147992,success,0.374783,temporal_sharing,0.464374,moderado
0.253866,0.255263,0.083333,0.204573,0.414063,0.483402,0.521978,0.396085,hybrid,0.506024,0.625,0.497577,0.684783,0.619048,0.70265,2,inference,0.030777,0,0.082336,0.008308,0.019242,success,0.015652,full_gpu,0.300529,moderado
0.45826,0.459649,0.032051,0.338147,0.242188,0.379668,0.445055,0.363136,immersion,0.771084,0.8375,0.570275,0.869565,0.714286,0.871364,8,training,0.124573,0.684564,0.619608,0.196292,0.403816,success,0.105217,full_gpu,0.570899,baixo
0.36406,0.367544,0.121795,0.311673,0.28125,0.406639,0.467033,0.605833,immersion,0.710843,0.8875,0.495961,0.858696,0.698413,0.700065,4,fine_tuning,0.124573,0.080537,0.081008,0.131557,0.044106,success,0.070435,temporal_sharing,0.467549,baixo
0.331195,0.334211,0.209858,0.365824,0.351563,0.570539,0.659341,0.538163,hybrid,0.554217,0.7,0.516963,0.532609,0.714286,0.674855,4,inference,0.249634,0,0.065703,0.038721,0.009945,success,0.046087,full_gpu,0.37619,baixo
0.684359,0.679825,0.286325,0.389892,0.554688,0.746888,0.821429,0.673945,hybrid,0.879518,0.8875,0.791599,0.76087,0.857143,0.662573,16,training,0.249634,0.872483,0.714208,0.637827,0.432571,success,0.154783,full_gpu,1,moderado
0.378822,0.382456,0.051282,0.209386,0.289062,0.572614,0.684066,0.484951,liquid,0.86747,0.825,0.518578,0.771739,0.730159,0.828701,8,training,0.124573,0.597315,0.512626,0.836637,0.410194,success,0.050435,full_gpu,0.498501,baixo
0.514938,0.536842,0.517094,0.773767,0.609375,0.657676,0.684066,0.486944,hybrid,0.240964,0.3375,0.588045,0.228261,0.730159,0.43956,8,inference,0.007328,0,0.003439,0.0014,0.012107,aborted,0.177391,mig,0.664903,alto
0.208524,0.209649,0.226496,0.231047,0.453125,0.487552,0.513736,0.428248,air,0.361446,0.525,0.424879,0.51087,0.52381,0.401422,2,inference,0.249634,0,0.051344,0.040714,0.003351,success,0.037391,temporal_sharing,0.268166,moderado
0.85536,0.847368,0.403846,0.401925,0.648438,0.591286,0.582418,0.656585,hybrid,0.819277,0.925,0.938611,0.728261,0.888889,0.849386,16,training,1,0.302013,0.345076,0.374182,0.460462,success,0.226957,full_gpu,1,moderado
0.404218,0.40614,0.356838,0.575211,0.53125,0.605809,0.642857,0.488541,hybrid,0.240964,0.35,0.515347,0.206522,0.68254,0.374919,4,idle,0.00342,0,0.000782,0.000234,0.021296,success,0.286957,full_gpu,0.559083,alto
0.984183,0.975439,0.138889,0.493381,0.40625,0.564315,0.631868,0.560932,hybrid,0.927711,0.9375,0.966074,0.923913,0.873016,0.847447,16,training,0.374695,0.261745,0.887011,0.47715,0.588617,success,0.208696,full_gpu,1,baixo
0.616344,0.618421,0.215812,0.388688,0.34375,0.491701,0.557692,0.467296,liquid,0.86747,0.7375,0.6979,0.684783,0.809524,0.752424,8,fine_tuning,0.249634,0.154362,0.153825,0.134157,0.181666,success,0.292174,full_gpu,0.786949,moderado
0.348858,0.307895,0.303419,0.551143,0.492188,0.543568,0.574176,0.429527,hybrid,0.433735,0.55,0.483037,0.434783,0.619048,0.452489,4,inference,0.124573,0,0.055978,0.035777,0.47992,aborted,0.226087,temporal_sharing,0.488536,alto
0.500879,0.504386,0.192308,0.298436,0.570313,0.66805,0.711538,0.532802,liquid,0.277108,0.4125,0.612278,0.217391,0.730159,0.394312,8,idle,0.00342,0,0.00152,0.0005,0.038593,failed,0.478261,mig,0.691358,alto
0.156415,0.152632,0.094017,0.045728,0.28125,0.329876,0.365385,0.226468,liquid,0.313253,0.55,0.321486,0.576087,0.460317,0.639302,4,inference,0.124573,0,0.017031,0.007865,0.005838,success,0.021739,full_gpu,0.177513,baixo
0.86819,0.87193,0.50641,0.791817,0.882813,0.937759,0.958791,0.486944,air,0.578313,0.6875,0.927302,0.467391,0.952381,0.646412,16,training,0.374695,0.731544,0.664015,0.716145,0.729366,aborted,0.930435,full_gpu,1,alto
0.415641,0.417544,0.209858,0.587244,0.492188,0.616183,0.67033,0.611488,hybrid,0.216867,0.375,0.515347,0.173913,0.666667,0.374919,4,idle,0.001466,0,0.001225,0.000377,0.027242,running,0.295652,temporal_sharing,0.559083,alto
0.325923,0.32193,0.17735,0.44284,0.40625,0.437759,0.464286,0.357234,hybrid,0.53012,0.8375,0.515347,0.641304,0.666667,0.579832,4,fine_tuning,0.249634,0.100671,0.091383,0.036364,0.109562,success,0.038261,full_gpu,0.37425,moderado
0.044376,0.044737,0.053419,0.006017,0.054687,0.002075,0.010989,0.054687,air,0.180723,0.125,0.048465,0.043478,0.063492,0.219134,2,idle,0.000489,0,0.001166,0.000678,0.00173,success,0,none,0.067901,baixo
0.228207,0.225439,0.143162,0.474128,0.507813,0.46473,0.464286,0.429773,air,0.590361,0.575,0.38126,0.51087,0.507937,0.466063,2,inference,0.007328,0,0.04336,0.019058,0.010378,success,0.048696,temporal_sharing,0.332628,moderado
0.448506,0.45,0.202991,0.353791,0.335938,0.508299,0.582418,0.593243,hybrid,0.783133,0.725,0.693053,0.76087,0.793651,0.593407,4,fine_tuning,0.249634,0.087248,0.210437,0.086153,0.088482,success,0.047826,temporal_sharing,0.596737,baixo
0.218278,0.22193,0.134615,0.326113,0.335938,0.512448,0.587912,0.525819,hybrid,0.566265,0.9125,0.450727,0.923913,0.68254,0.811248,2,fine_tuning,0.062042,0.040268,0.05251,0.073444,0.062429,success,0.006957,full_gpu,0.313933,baixo
0.446837,0.448246,0.132479,0.510229,0.523437,0.595436,0.631868,0.58085,air,0.698795,0.8125,0.471729,0.815217,0.746032,0.733678,8,fine_tuning,0.249634,0.060403,0.150002,0.052339,0.120048,success,0.12,temporal_sharing,0.610317,baixo
0.448594,0.455263,0.196581,0.33574,0.335938,0.502075,0.574176,0.525917,hybrid,0.722892,0.6625,0.660743,0.717391,0.793651,0.700711,4,fine_tuning,0.187103,0.120805,0.155655,0.10375,0.093833,success,0.071304,full_gpu,0.573016,baixo
0.529174,0.522807,0.190171,0.308063,0.570313,0.539419,0.541209,0.544605,air,0.626506,0.8375,0.66559,0.695652,0.761905,0.640595,8,fine_tuning,0.249634,0.161074,0.191709,0.142701,0.099995,success,0.14,full_gpu,0.682451,moderado
0.390158,0.39386,0.24359,0.370638,0.492188,0.585062,0.629121,0.454116,hybrid,0.373494,0.475,0.491115,0.336957,0.634921,0.426632,4,inference,0.124573,0,0.036792,0.028615,0.023999,running,0.252174,temporal_sharing,0.541446,alto
0.553603,0.557895,0.517094,0.827918,0.609375,0.688797,0.725275,0.697551,liquid,0.240964,0.35,0.644588,0.206522,0.746032,0.4234,8,idle,0.001466,0,0.00093,0.000316,0.029404,aborted,0.504348,full_gpu,0.717813,alto
0.626714,0.625439,0.314103,0.638989,0.570313,0.645228,0.681319,0.719042,immersion,0.843373,0.775,0.675283,0.815217,0.84127,0.67744,8,training,0.499756,0.194631,0.16445,0.970866,0.21388,running,0.09913,full_gpu,0.904145,moderado
0.479789,0.481579,0.42094,0.647413,0.570313,0.543568,0.546703,0.567227,air,0.228916,0.3375,0.579968,0.217391,0.904762,0.387847,8,idle,0.00342,0,0.00093,0.000316,0.024539,aborted,0.145217,temporal_sharing,0.656085,alto
0.631722,0.632456,0.132479,0.386282,0.523437,0.622407,0.667582,0.602587,liquid,0.951807,0.925,0.65105,0.717391,0.793651,0.728507,8,training,0.124573,0.362416,0.462005,0.919259,0.375493,success,0.127826,full_gpu,0.752116,moderado
0.547803,0.541228,0.301282,0.575211,0.460938,0.612033,0.675824,0.54908,hybrid,0.566265,0.8625,0.432956,0.641304,0.698413,0.64512,8,fine_tuning,0.249634,0.107383,0.12695,0.067099,0.138857,success,0.122609,temporal_sharing,0.728219,moderado
0.331283,0.334211,0.356838,0.623345,0.492188,0.585062,0.629121,0.434445,air,0.385542,0.475,0.450727,0.391304,0.603175,0.413704,4,inference,0.062042,0,0.019082,0.010199,0.023458,running,0.234783,mig,0.488536,alto
0.874341,0.87807,0.24359,0.358604,0.921875,0.917012,0.917582,0.788532,air,0.650602,0.75,0.903069,0.543478,0.761905,0.685197,16,training,0.499756,0.563758,0.4574,0.58314,0.442895,success,0.930435,full_gpu,1,alto
0.890158,0.82193,0.33547,0.527076,0.648438,0.73029,0.766484,0.616406,hybrid,0.433735,0.5625,0.116317,0.141304,0.809524,0.504202,8,fine_tuning,0.124573,0.154362,0.115011,0.094094,0.286147,success,0.617391,temporal_sharing,0.823633,alto
0.905097,0.907895,0.559829,0.888087,0.960938,0.958506,0.958791,0.950821,air,0.518072,0.6625,0.919225,0.456522,0.679474,0.659341,16,fine_tuning,0.374695,0.295302,0.531191,0.450136,0.518567,aborted,0.947826,full_gpu,1,alto
0.573989,0.57807,0.232906,0.371841,0.492188,0.466805,0.472527,0.507328,liquid,0.819277,0.7375,0.6042,0.73913,0.746032,0.769877,8,fine_tuning,0.124573,0.04698,0.165469,0.043878,0.151992,success,0.125217,full_gpu,0.793122,moderado
0.390949,0.392982,0.104701,0.493381,0.445312,0.63278,0.708791,0.589948,liquid,0.722892,0.675,0.516963,0.913043,0.761905,0.698772,4,fine_tuning,0.187103,0.167785,0.112664,0.044379,0.138101,success,0.083478,full_gpu,0.441975,baixo
0.058348,0.057895,0.008547,0.116727,0.234375,0.134855,0.123626,0.108783,air,0.156627,0.2,0.116317,0.097826,0.111111,0.107951,4,idle,0.000489,0,0.000236,0.00056,0.001892,success,0,mig,0.075485,baixo
0.23058,0.22807,0.130342,0.044525,0.335938,0.348548,0.376374,0.347546,air,0.819277,0.6875,0.631664,0.717391,0.777778,0.755656,2,fine_tuning,0.093307,0.053691,0.076728,0.039775,0.054429,success,0.011304,mig,0.32037,baixo
0.586116,0.588596,0.239316,0.358604,0.609375,0.709544,0.752747,0.552474,liquid,0.373494,0.525,0.676898,0.336957,0.777778,0.491273,8,inference,0.062042,0,0.008752,0.006106,0.022918,success,0.582609,mig,0.779541,alto
0.290422,0.290351,0.151709,0.288809,0.46875,0.522822,0.554945,0.558916,liquid,0.493976,0.875,0.281099,0.684783,0.679474,0.678087,8,inference,0.124573,0,0.035184,0.023878,0.021783,success,0.057391,full_gpu,0.344533,baixo
0.015554,0.014912,0.047009,0.092659,0.210937,0.176349,0.186813,0.486944,air,0.180723,0.1,0.011309,0.119565,0,0.074984,1,idle,0.000489,0,0.000339,0.000619,0.002108,success,0,mig,0.029365,baixo
0.110984,0.111404,0.064103,0.143201,0.125,0.172199,0.211538,0.099292,air,0.457831,0.3625,0.197092,0.586957,0.380952,0.611506,4,inference,0.062042,0,0.005726,0.025512,0.001297,success,0.03913,temporal_sharing,0.128219,baixo
0.25167,0.250877,0.226496,0.501805,0.40625,0.556017,0.620879,0.466657,liquid,0.566265,0.7875,0.394184,0.608696,0.650794,0.588882,4,inference,0.124573,0,0.079738,0.016393,0.025134,success,0.084348,mig,0.289771,moderado
0.118629,0.125439,0.252137,0.237064,0.460938,0.549793,0.593407,0.320989,air,0.084337,0.425,0.227787,0.086957,0.253968,0.261797,4,idle,0.000489,0,0.000443,0.000455,0.03216,running,0.044348,none,0.209171,moderado
0.26696,0.264912,0.273504,0.528279,0.578125,0.593361,0.60989,0.486944,hybrid,0.578313,0.6,0.44588,0.467391,0.555556,0.571429,2,inference,0.124573,0,0.023215,0.031617,0.009675,success,0.029565,mig,0.34418,moderado
0.080668,0.078947,0.047009,0.194946,0.140625,0.209544,0.255495,0.148864,air,0.542169,0.7375,0.090468,0.51087,0.333333,0.307046,4,inference,0.015144,0,0.017607,0.005996,0.006864,success,0.035652,mig,0.102646,baixo
0.108699,0.109649,0.098291,0.113117,0.304688,0.201245,0.186813,0.231583,air,0.337349,0.5625,0.271405,0.586957,0.47619,0.497738,4,inference,0.007328,0,0.004634,0.009467,0.005189,success,0.033043,mig,0.148589,baixo
0.247276,0.24386,0.119658,0.293622,0.179688,0.321577,0.39011,0.381922,hybrid,0.73494,0.6,0.675283,0.891304,0.857143,0.799612,4,fine_tuning,0.124573,0.020134,0.075178,0.026979,0.026431,success,0.049565,full_gpu,0.308289,baixo
0.285325,0.278947,0.275641,0.32852,0.390625,0.481328,0.527473,0.392545,hybrid,0.60241,0.75,0.510501,0.717391,0.698413,0.573368,4,fine_tuning,0.249634,0.208054,0.036276,0.16051,0.164424,success,0.063478,temporal_sharing,0.344621,moderado
0.984183,0.981579,0.205128,0.359807,0.53125,0.612033,0.651099,0.660716,liquid,1,0.8875,0.84168,0.880435,0.888889,0.730446,16,training,0.499756,0.838926,0.271595,0.373941,0.594671,success,0.197391,full_gpu,1,baixo
0.200879,0.202632,0.115385,0.237064,0.375,0.383817,0.403846,0.349759,liquid,0.518072,0.6125,0.386107,0.51087,0.507937,0.438268,2,inference,0.030777,0,0.054782,0.008277,0.013999,success,0.027826,temporal_sharing,0.268342,moderado
0.384886,0.387719,0.228632,0.358604,0.492188,0.595436,0.642857,0.459034,hybrid,0.39759,0.525,0.491115,0.347826,0.634921,0.426632,4,inference,0.124573,0,0.036792,0.027592,0.022918,success,0.252174,temporal_sharing,0.52381,alto
0.453163,0.445614,0.25,0.172082,0.429688,0.539419,0.590659,0.482935,hybrid,0.855422,0.675,0.557351,0.793478,0.746032,0.74596,4,fine_tuning,0.374695,0.147651,0.088431,0.120283,0.108318,success,0.065217,full_gpu,0.512434,moderado
0.572935,0.576316,0.089744,0.344164,0.3125,0.641079,0.766484,0.481607,liquid,0.819277,0.95,0.684976,0.956522,0.793651,0.724628,16,training,0.749878,0.442953,0.804188,0.615837,0.338036,success,0.171304,full_gpu,0.700441,baixo
0.660808,0.65614,0.452991,0.755716,0.804688,0.854772,0.876374,0.857382,hybrid,0.481928,0.6375,0.749596,0.358696,0.825397,0.633484,8,inference,0.015144,0,0.006538,0.002423,0.020215,failed,0.643478,full_gpu,0.84127,alto
0.635325,0.632456,0.40812,0.620939,0.65625,0.661826,0.673077,0.699567,hybrid,0.554217,0.9375,0.765751,0.521739,0.873016,0.776988,8,training,0.499756,0.744966,0.290161,0.511882,0.331874,success,0.147826,full_gpu,0.774074,moderado
0.541213,0.539474,0.260684,0.44645,0.304688,0.543568,0.64011,0.554146,hybrid,0.542169,0.6375,0.694669,0.48913,0.809524,0.694893,8,fine_tuning,0.187103,0.174497,0.110908,0.076512,0.140857,running,0.137391,full_gpu,0.728042,moderado
0.790861,0.795614,0.452991,0.719615,0.804688,0.854772,0.876374,0.763942,air,0.542169,0.6625,0.838449,0.445652,0.679474,0.594699,16,fine_tuning,0.249634,0.261745,0.236028,0.214821,0.475326,running,0.265217,full_gpu,1,alto
0.007469,0.007018,0.070513,0.001203,0.289062,0.062241,0.008242,0.086358,hybrid,0.13253,0.175,0.016155,0.108696,0.063492,0.060116,1,idle,0.001466,0,0.001387,0.000428,0.00373,success,0,temporal_sharing,0.022399,baixo
0.935852,0.939474,0.346154,0.484958,0.921875,0.533195,0.409341,0.822957,air,0.433735,0.625,0.943457,0.293478,0.904762,0.568843,16,inference,0.062042,0,0.058929,0.021453,0.035349,running,0.12087,full_gpu,1,alto
0.372671,0.368421,0.192308,0.524669,0.28125,0.396266,0.453297,0.36466,hybrid,0.710843,0.7875,0.442649,0.728261,0.68254,0.63607,4,fine_tuning,0.249634,0.194631,0.115084,0.03072,0.149397,success,0.22087,full_gpu,0.495414,moderado
0.400351,0.404386,0.222222,0.326113,0.523437,0.655602,0.711538,0.577456,hybrid,0.686747,0.6625,0.594507,0.641304,0.777778,0.700711,4,fine_tuning,0.187103,0.134228,0.086645,0.156289,0.163991,running,0.294783,mig,0.503439,moderado
0.353076,0.354386,0.24359,0.404332,0.375,0.383817,0.403846,0.366283,hybrid,0.578313,0.8625,0.455574,0.75,0.650794,0.641241,4,fine_tuning,0.249634,0.187919,0.180655,0.111219,0.096157,success,0.04,mig,0.416226,moderado
0.552285,0.545614,0.200855,0.407942,0.320313,0.549793,0.642857,0.510623,immersion,0.831325,0.9,0.681745,0.826087,0.825397,0.926955,8,training,0.749878,0.684564,0.781594,0.595497,0.355927,success,0.106957,full_gpu,0.733598,baixo
0.655536,0.659649,0.346154,0.53911,0.6875,0.751037,0.78022,0.60657,liquid,0.46988,0.6,0.733441,0.402174,0.825397,0.53329,8,inference,0.062042,0,0.020558,0.013268,0.028323,running,0.652174,mig,0.858907,alto
0.340598,0.342982,0.200855,0.363418,0.429688,0.558091,0.615385,0.564621,liquid,0.674699,0.875,0.541195,0.869565,0.714286,0.621202,4,fine_tuning,0.374695,0.154362,0.090379,0.130971,0.057186,success,0.053913,full_gpu,0.480776,baixo
0.348418,0.341228,0.15812,0.416366,0.429688,0.419087,0.431319,0.382955,hybrid,0.819277,0.5625,0.515347,0.652174,0.698413,0.564964,4,fine_tuning,0.249634,0.187919,0.061542,0.097169,0.183666,success,0.044348,full_gpu,0.489859,moderado
0.914148,0.876316,0.730769,0.459687,0.367187,0.381743,0.403846,0.422396,hybrid,0.493976,0.6,0.436187,0.565217,0.634921,0.60892,8,inference,0.249634,0,0.027495,0.009335,0.008486,success,0.091304,mig,0.379453,baixo
0.041213,0.042105,0.209858,0.066185,0,0.10166,0.162088,0.064424,air,0.084337,0.1125,0.019386,0.086957,0,0.245637,2,idle,0.000489,0,0.000782,0.000629,0.001081,success,0,mig,0.056261,baixo
0.746924,0.741228,0.209858,0.7858,0.804688,0.834025,0.848901,0.939068,air,0.024096,0.4875,0.757674,0.108696,0.873016,0.542986,8,fine_tuning,0.124573,0.114094,0.100252,0.097163,0.22669,failed,0.73913,mig,0.920635,alto
0.237873,0.240351,0.200855,0.358604,0.453125,0.568465,0.620879,0.402823,hybrid,0.722892,0.9125,0.691438,0.75,0.793651,0.870071,4,fine_tuning,0.124573,0.181208,0.04454,0.09697,0.054916,success,0.06,temporal_sharing,0.277954,baixo
0.832425,0.835088,0.42735,0.299639,0.5625,0.605809,0.631868,0.735517,hybrid,0.722892,0.8375,0.84168,0.652174,0.857143,0.815126,16,training,1,0.174497,0.327292,0.791439,0.335549,failed,0.215652,full_gpu,1,moderado
0.343234,0.346491,0.209858,0.32852,0.328125,0.43361,0.486264,0.332497,liquid,0.614458,0.7625,0.390953,0.782609,0.571429,0.612799,4,inference,0.062042,0,0.07872,0.021836,0.010054,success,0.055652,full_gpu,0.418783,baixo
0.190158,0.186842,0.115385,0.269555,0.265625,0.282158,0.307692,0.239697,air,0.855422,0.5875,0.46042,0.728261,0.714286,0.577246,2,fine_tuning,0.062042,0.013423,0.048481,0.059779,0.024215,success,0.021739,full_gpu,0.257407,baixo
0.442619,0.437719,0.053419,0.11071,0.414063,0.473029,0.508242,0.306482,liquid,0.903614,0.9375,0.547658,0.902174,0.68254,0.700065,8,training,0.249634,0.590604,0.7296,0.674665,0.271066,success,0.06,full_gpu,0.579541,baixo
0.452636,0.454386,0.145299,0.38452,0.4375,0.576763,0.637363,0.423035,hybrid,0.831325,0.625,0.589661,0.76087,0.714286,0.688429,8,inference,0.249634,0,0.036054,0.042896,0.018756,success,0.090435,temporal_sharing,0.509259,moderado
0.324517,0.318421,0.094017,0.241877,0.390625,0.450207,0.486264,0.457755,hybrid,0.590361,0.85,0.439418,0.75,0.650794,0.689076,4,fine_tuning,0.249634,0.194631,0.023392,0.07591,0.142749,success,0.053043,full_gpu,0.414638,moderado
0.565378,0.559649,0.108974,0.352587,0.234375,0.417012,0.497253,0.475411,hybrid,0.927711,0.675,0.655897,0.826087,0.793651,0.745314,8,training,0.249634,0.469799,0.306188,0.213885,0.444841,success,0.112174,full_gpu,0.699118,moderado
0.756327,0.753509,0.17735,0.38452,0.304688,0.572614,0.678571,0.655552,hybrid,0.831325,0.925,0.857835,0.815217,0.904762,0.83969,16,training,0.249634,0.342282,0.423235,0.867497,0.761202,aborted,0.184348,full_gpu,0.971781,moderado
0.164236,0.163158,0.070513,0.166065,0.289062,0.273859,0.288462,0.165437,liquid,0.39759,0.675,0.376414,0.478261,0.492063,0.584357,2,inference,0.124573,0,0.020558,0.016445,0.012053,success,0.024348,temporal_sharing,0.218519,baixo
0.732162,0.731579,0.241453,0.280385,0.523437,0.549793,0.571429,0.534081,liquid,0.722892,0.8125,0.857835,0.76087,0.857143,0.723982,16,training,0.124573,0.651007,0.628994,0.886993,0.129236,success,0.22,full_gpu,1,moderado
0.637698,0.631579,0.106838,0.144404,0.4375,0.514523,0.554945,0.606472,liquid,0.963855,0.825,0.714055,0.836957,0.809524,0.778281,8,training,0.499756,0.684564,0.223631,0.926456,0.599859,success,0.383478,full_gpu,0.793827,moderado
0.202724,0.203509,0.096154,0.233454,0.398438,0.462656,0.5,0.194944,hybrid,0.506024,0.75,0.636511,0.836957,0.777778,0.528119,2,fine_tuning,0.249634,0.067114,0.097315,0.035714,0.045835,success,0.012174,temporal_sharing,0.294356,baixo
0.164938,0.160526,0.232906,0.499398,0.46875,0.524896,0.557692,0.432822,hybrid,0.518072,0.65,0.392569,0.478261,0.555556,0.4415,2,inference,0.007328,0,0.082011,0.018759,0.004811,success,0.026087,full_gpu,0.229541,moderado
0.728647,0.732456,0.350427,0.647413,0.414063,0.717842,0.832418,0.775843,hybrid,0.698795,0.975,0.812601,0.565217,0.904762,0.782159,16,training,0.374695,0.744966,0.786139,0.8393,0.184422,failed,0.406957,full_gpu,1,moderado
0.869947,0.873684,0.463675,0.743682,0.84375,0.917012,0.945055,0.891807,air,0.457831,0.6,0.919225,0.336957,0.936508,0.581771,16,training,0.499756,0.731544,0.619741,0.695683,0.745581,aborted,0.913043,mig,1,alto
0.704394,0.708772,0.384615,0.613718,0.664063,0.751037,0.788462,0.718108,hybrid,0.590361,0.875,0.759289,0.5,0.857143,0.716871,16,training,0.374695,0.255034,0.376983,0.966732,0.379547,success,0.223478,full_gpu,0.919841,moderado
0.323814,0.936842,0.931624,0.45367,0.492188,0.506224,0.524725,0.393922,liquid,0.60241,0.575,0.486268,0.565217,0.666667,0.544279,4,inference,0.030777,0,0.066013,0.041047,0.029025,success,0.050435,temporal_sharing,0.376984,moderado
0.041652,0.042105,0.044872,0.138387,0.03125,0.060166,0.096154,0.082178,air,0.216867,0,0.03231,0.130435,0.031746,0.224952,2,idle,0.001466,0,0.000472,0.000659,0.001351,success,0,none,0.070459,baixo
0.902373,0.923684,0.452991,0.921781,0.570313,0.688797,0.739011,0.759024,air,0.180723,0.2875,0.563813,0.163043,0.698413,0.349063,4,idle,0.00342,0,0.000487,0.000152,0.017513,success,0.33913,mig,0.611993,alto
0.710457,0.720175,0.160256,0.292419,0.507813,0.576763,0.612637,0.551244,hybrid,0.963855,0.975,0.877221,0.98913,0.873016,0.783452,16,training,1,0.275168,0.878363,0.889774,0.656343,success,0.154783,full_gpu,0.840212,baixo
0.321529,0.321053,0.252137,0.361011,0.429688,0.562241,0.620879,0.457313,liquid,0.481928,0.6375,0.436187,0.5,0.587302,0.549451,4,inference,0.030777,0,0.071341,0.040651,0.028485,running,0.063478,mig,0.381922,moderado
0.526626,0.522807,0.117521,0.244284,0.367187,0.518672,0.585165,0.400266,liquid,0.783133,0.775,0.702746,0.880435,0.825397,0.846154,8,training,0.499756,0.449664,0.334775,0.846617,0.171504,success,0.076522,full_gpu,0.717108,baixo
0.292794,0.294737,0.209858,0.198556,0.242188,0.217842,0.230769,0.155847,hybrid,0.301205,0.5125,0.159935,0.554348,0.380952,0.433743,4,inference,0.062042,0,0.026402,0.01717,0.009891,success,0.046957,mig,0.362081,baixo
0.067047,0.066667,0.002137,0.21059,0.28125,0.141079,0.115385,0.057982,air,0.192771,0.175,0.01454,0.141304,0.015873,0.1532,1,idle,0.007328,0,0.00155,0.000116,0.000324,success,0,mig,0.092593,baixo
0.744288,0.762281,0.130342,0.87485,0.398438,0.572614,0.645604,0.551097,hybrid,0.722892,0.8,0.696284,0.891304,0.825397,0.724628,4,fine_tuning,0.374695,0.100671,0.213049,0.112137,0.123345,success,0.041739,temporal_sharing,0.394885,baixo
0.341828,0.345614,0.196581,0.196149,0.390625,0.495851,0.546703,0.335645,hybrid,0.686747,0.825,0.323102,0.728261,0.52381,0.717518,4,inference,0.062042,0,0.023569,0.02208,0.008108,success,0.047826,full_gpu,0.460317,baixo
0.141301,0.135088,0.168803,0.503008,0.304688,0.481328,0.557692,0.288679,hybrid,0.373494,0.5875,0.219709,0.554348,0.444444,0.443439,2,inference,0.124573,0,0.076403,0.009833,0.024918,success,0.017391,temporal_sharing,0.208113,moderado
0.666257,0.669298,0.138889,0.488568,0.515625,0.529046,0.546703,0.501869,immersion,0.891566,0.875,0.964459,0.956522,0.857143,0.913381,16,training,0.374695,0.66443,0.956567,0.286717,0.2008,success,0.206087,full_gpu,0.855026,baixo
0.545782,0.528947,0.209858,0.208183,0.53125,0.630705,0.675824,0.414872,liquid,0.855422,0.9875,0.747981,0.934783,0.84127,0.827408,8,training,0.749878,0.805369,0.260334,0.916751,0.352792,success,0.089565,full_gpu,0.650353,baixo
0.370826,0.365789,0.217949,0.34657,0.453125,0.574689,0.629121,0.439363,hybrid,0.373494,0.4875,0.483037,0.347826,0.634921,0.426632,4,inference,0.062042,0,0.035316,0.025545,0.022918,failed,0.252174,full_gpu,0.52381,alto
0.912127,0.904386,0.538462,0.839952,0.921875,0.958506,0.972527,0.940986,air,0.614458,0.725,0.951535,0.5,0.984127,0.678733,16,training,0.499756,0.865772,0.767322,0.838918,0.810443,failed,0.20087,full_gpu,1,alto
0.583743,0.573684,0.111111,0.367028,0.53125,0.651452,0.703297,0.626488,hybrid,0.831325,0.9,0.943457,0.847826,0.679474,0.892049,8,training,0.374695,0.416107,0.589619,0.832089,0.47765,success,0.101739,full_gpu,0.711464,baixo
0.839192,0.74386,0.209858,0.32852,0.804688,0.854772,0.876374,0.695092,air,0.554217,0.65,0.878837,0.478261,0.888889,0.601164,16,inference,0.124573,0,0.04122,0.024522,0.822334,aborted,0.878261,mig,1,alto
0.592091,0.585965,0.324786,0.5716,0.5625,0.562241,0.574176,0.644487,liquid,0.807229,0.7875,0.484653,0.73913,0.730159,0.787977,8,fine_tuning,0.187103,0.040268,0.116988,0.152665,0.06324,success,0.113043,full_gpu,0.764462,moderado
0.466784,0.462281,0.136752,0.465704,0.445312,0.628631,0.703297,0.541212,immersion,0.903614,0.9125,0.743134,0.782609,0.84127,0.625727,8,fine_tuning,0.124573,0.053691,0.165026,0.029427,0.130155,success,0.084348,full_gpu,0.598501,baixo
0.122935,0.123684,0.057692,0.123947,0.265625,0.292531,0.321429,0.14252,liquid,0.60241,0.425,0.295638,0.695652,0.507937,0.593407,1,inference,0.030777,0,0.022875,0.015097,0.010756,success,0,mig,0.155115,baixo
0.247627,0.248246,0.209858,0.22864,0.390625,0.605809,0.692308,0.433707,hybrid,0.421687,0.5875,0.453958,0.565217,0.571429,0.490627,4,inference,0.249634,0,0.063755,0.05091,0.008594,success,0.090435,mig,0.358995,moderado
0.660808,0.664035,0.356838,0.551143,0.6875,0.761411,0.793956,0.63116,air,0.457831,0.5875,0.741519,0.391304,0.825397,0.510666,8,inference,0.062042,0,0.020558,0.013268,0.029944,failed,0.273913,temporal_sharing,0.858907,alto
0.802724,0.746491,0.438034,0.626955,0.5625,0.711618,0.771978,0.638536,hybrid,0.626506,0.7,0.757674,0.554348,0.793651,0.72075,16,training,0.249634,0.798658,0.823979,0.946622,0.312091,success,0.170435,full_gpu,1,moderado
0.768893,0.772807,0.316239,0.44284,0.6875,0.802905,0.848901,0.660667,liquid,0.39759,0.525,0.822294,0.402174,0.679474,0.591467,16,fine_tuning,0.124573,0.167785,0.112059,0.087955,0.296957,running,0.229565,full_gpu,0.955908,alto
0.71529,0.683333,0.324786,0.496992,0.726563,0.792531,0.821429,0.003098,hybrid,0.46988,0.6,0.773829,0.402174,0.888889,0.536522,16,fine_tuning,0.249634,0.208054,0.162237,0.163665,0.415869,success,0.261739,mig,0.911817,alto
0.580844,0.575439,0.33547,0.527076,0.609375,0.709544,0.752747,0.611488,liquid,0.433735,0.5625,0.684976,0.369565,0.777778,0.484809,8,inference,0.062042,0,0.017607,0.011222,0.027782,running,0.582609,mig,0.770723,alto
0.046837,0.048246,0.047009,0.031288,0.015625,0.087137,0.137363,0.038802,hybrid,0.012048,0.0625,0.01454,0.097826,0.063492,0.233355,4,idle,0,0,0.000472,0.00053,0.002162,success,0,temporal_sharing,0.065168,baixo
0.86819,0.964035,0.064103,0.961492,0.289062,0.284232,0.302198,0.238222,liquid,0.421687,0.725,0.557351,0.5,0.587302,0.599871,1,inference,0.062042,0,0.074116,0.044609,0.015242,success,0.013043,mig,0.187037,moderado
0.783831,0.777193,0.260684,0.382671,0.765625,0.834025,0.862637,0.616406,liquid,0.53012,0.6375,0.830372,0.445652,0.873016,0.581771,16,training,0.249634,0.630872,0.4574,0.501292,0.626669,success,0.782609,full_gpu,1,alto
